generated by phonopy
   1.0
     4.0051976421304145   -0.0002125195298784    0.0000312149301172
    -2.0027828489697663    3.4681583891969110   -0.0000019355470738
     0.0000529893351214    0.0000266936445581    6.8010335851285584
Ca Zn P
   1    2    2
Direct
  0.9999999903303023  0.9999999981922798  0.9999999907970080
  0.3333275668439413  0.6666639399339900  0.6332656222105727
  0.6666724093143372  0.3333360608692288  0.3667347400626043
  0.3308385038792915  0.6666682984381254  0.2647144626045659
  0.6666647139463536  0.3333317025663760  0.7352852143252521
