Strontium nitride - alpha
1.0
       11.4670000076         0.0000000000         0.0000000000
        0.0000000000        11.4670000076         0.0000000000
        0.0000000000         0.0000000000        11.4670000076
   Sr    N
   48   32
Direct
     0.391999990         0.155000001         0.381000012
     0.608000040         0.845000029         0.618999958
     0.108000010         0.845000029         0.881000042
     0.891999960         0.155000001         0.118999988
     0.608000040         0.654999971         0.118999988
     0.391999990         0.344999999         0.881000042
     0.891999960         0.344999999         0.618999958
     0.108000010         0.654999971         0.381000012
     0.381000012         0.391999990         0.155000001
     0.618999958         0.608000040         0.845000029
     0.881000042         0.108000010         0.845000029
     0.118999988         0.891999960         0.155000001
     0.118999988         0.608000040         0.654999971
     0.881000042         0.391999990         0.344999999
     0.618999958         0.891999960         0.344999999
     0.381000012         0.108000010         0.654999971
     0.155000001         0.381000012         0.391999990
     0.845000029         0.618999958         0.608000040
     0.845000029         0.881000042         0.108000010
     0.155000001         0.118999988         0.891999960
     0.654999971         0.118999988         0.608000040
     0.344999999         0.881000042         0.391999990
     0.344999999         0.618999958         0.891999960
     0.654999971         0.381000012         0.108000010
     0.891999960         0.654999971         0.881000042
     0.108000010         0.344999999         0.118999988
     0.608000040         0.344999999         0.381000012
     0.391999990         0.654999971         0.618999958
     0.108000010         0.155000001         0.618999958
     0.891999960         0.845000029         0.381000012
     0.391999990         0.845000029         0.118999988
     0.608000040         0.155000001         0.881000042
     0.881000042         0.891999960         0.654999971
     0.118999988         0.108000010         0.344999999
     0.381000012         0.608000040         0.344999999
     0.618999958         0.391999990         0.654999971
     0.618999958         0.108000010         0.155000001
     0.381000012         0.891999960         0.845000029
     0.118999988         0.391999990         0.845000029
     0.881000042         0.608000040         0.155000001
     0.654999971         0.881000042         0.891999960
     0.344999999         0.118999988         0.108000010
     0.344999999         0.381000012         0.608000040
     0.654999971         0.618999958         0.391999990
     0.155000001         0.618999958         0.108000010
     0.845000029         0.381000012         0.891999960
     0.845000029         0.118999988         0.391999990
     0.155000001         0.881000042         0.608000040
     0.250000000         0.250000000         0.250000000
     0.750000000         0.750000000         0.750000000
     0.250000000         0.750000000         0.750000000
     0.750000000         0.250000000         0.250000000
     0.750000000         0.750000000         0.250000000
     0.250000000         0.250000000         0.750000000
     0.750000000         0.250000000         0.750000000
     0.250000000         0.750000000         0.250000000
     0.955999970         0.000000000         0.250000000
     0.044000030         0.000000000         0.750000000
     0.544000030         0.000000000         0.750000000
     0.455999970         0.000000000         0.250000000
     0.044000030         0.500000000         0.250000000
     0.955999970         0.500000000         0.750000000
     0.455999970         0.500000000         0.750000000
     0.544000030         0.500000000         0.250000000
     0.250000000         0.955999970         0.000000000
     0.750000000         0.044000030         0.000000000
     0.750000000         0.544000030         0.000000000
     0.250000000         0.455999970         0.000000000
     0.250000000         0.044000030         0.500000000
     0.750000000         0.955999970         0.500000000
     0.750000000         0.455999970         0.500000000
     0.250000000         0.544000030         0.500000000
     0.000000000         0.250000000         0.955999970
     0.000000000         0.750000000         0.044000030
     0.000000000         0.750000000         0.544000030
     0.000000000         0.250000000         0.455999970
     0.500000000         0.250000000         0.044000030
     0.500000000         0.750000000         0.955999970
     0.500000000         0.750000000         0.455999970
     0.500000000         0.250000000         0.544000030
