Sr18 Zn36 P36                           
   1.00000000000000     
    12.2176620000000007    0.0006840000000000    0.0001200000000000
    -6.1082380000000001   10.5802189999999996    0.0000770000000000
     0.0001400000000000    0.0001820000000000   14.2036990000000003
   Sr   Zn   P 
    18    36    35
Direct
  0.3343831590518747  0.3324868889321948  0.9986000205200583
  0.3320866185693916  0.3346596456194675  0.5008651344283237
  0.3333457133849933  0.6663566251261415  0.0004364473714489
  0.3333735204096300  0.6671445259740807  0.5006179334496821
  0.3343488725892811  0.0010497764304134  0.9987633907524014
  0.3322149887466637  0.9985210584493203  0.5015722773323930
  0.6654246654604066  0.3323739590643342  0.9986513272932314
  0.6684650509661125  0.3342366573774171  0.5010836006439874
  0.6663947351899182  0.6656052348992532  0.9990182119939064
  0.6656131735423898  0.6652256035327113  0.5012521808604546
  0.6668782980501078  0.0001590397331626  0.9991432984231352
  0.6656057180022543  0.0008717805046672  0.5011500230413475
  0.0003097068676752  0.3331900217747688  0.0006528458720112
  0.9995133278443191  0.3330501498701537  0.5005035865672767
  0.0003140681856522  0.6665261216540799  0.0005628635027364
  0.9995354339931524  0.6670270159121117  0.5006046162608868
  0.0008285414601872  0.0000037608212082  0.9992959040198670
  0.0014494170414707  0.0009477457886575  0.5013238561050599
  0.1107822417392157  0.2235398745765167  0.3153428001849505
  0.1127748788372855  0.2222316483746312  0.8151924255873197
  0.1106690115847542  0.5568864808055167  0.3153892037970678
  0.1116452785787345  0.5572384014242076  0.8157271012715839
  0.1103994856671164  0.8899582025726147  0.3154210475747021
  0.1112563280226198  0.8906086775811843  0.8151714178806913
  0.4440896558339134  0.2235393373448247  0.3154161282988426
  0.4453617332174886  0.2222052651709348  0.7850212285498444
  0.4430409203160792  0.5557510823412741  0.3153808286308717
  0.4448114712480873  0.5570203619905314  0.8152801303915567
  0.4428536722936158  0.8888580912071191  0.3156325368288790
  0.4461951831351954  0.8906256298825568  0.8151841313572277
  0.7762303698374708  0.2223604069343210  0.3153731338271726
  0.7791778867865631  0.2220439603719555  0.8152179907548316
  0.7776944316282055  0.5570624251247835  0.3155377102263444
  0.7792600865385140  0.5568248449291460  0.8151832521168032
  0.7773825596179691  0.8902317327664448  0.3153374473422090
  0.7779091021807574  0.8889457575154083  0.8134399472448806
  0.2225815471252872  0.1095682746120801  0.1852786743899486
  0.2242712517082737  0.1116351581068287  0.6864134886527395
  0.2223902818604415  0.4428863885334664  0.1849478055671838
  0.2202659522058710  0.4442391888583330  0.6855199080493932
  0.2236605296797691  0.7793084302711506  0.1849348602401051
  0.2223248113181739  0.7759352615378248  0.6857646368972041
  0.5539917122170621  0.1094214078723255  0.1850542498500403
  0.5548783239628818  0.1122257196148624  0.6865110631476341
  0.5556811625216653  0.4426482367354510  0.1853436291848922
  0.5553782807409249  0.4441199240111473  0.6867092132354671
  0.5558343435241966  0.7760777864348682  0.1852991936681150
  0.5538651387983862  0.7762774637843393  0.6850218542886566
  0.8889873588779125  0.1095388644540662  0.1849781212750869
  0.8904910931693308  0.1127089084452848  0.6850614931287353
  0.8872344863845214  0.4427024525002068  0.1850592571015568
  0.8906028967743538  0.4440283500576854  0.6857736492105460
  0.8871207119761948  0.7765083752195068  0.1850981463658741
  0.8891679408568507  0.7763033341446501  0.6850477360546066
  0.1116515955764612  0.2210041997584682  0.1387767183868434
  0.1123703182228368  0.2227238068389426  0.6392531575316411
  0.1111594998665808  0.5551290970133778  0.1399761015354244
  0.1110269157511397  0.5553567435172369  0.6385251428548386
  0.1108800531686285  0.8883251755320956  0.1388292293332185
  0.1120926380355982  0.8886280489965586  0.6395646381713505
  0.4443268468755122  0.2211335210820238  0.1387757425391243
  0.4446029995817824  0.5538784842782576  0.1387627279938073
  0.4430344540722189  0.5540859215339040  0.6392457312214290
  0.4448968002215636  0.8881865220328251  0.1387539738284929
  0.4439412228600617  0.8890736664996197  0.6394374433171919
  0.7769011018582290  0.2208194964522718  0.1388816088491254
  0.7777311705044667  0.2225694414906982  0.6394093509045575
  0.7771168229804175  0.5543955235585400  0.1387386120304868
  0.7776615428829174  0.5539374973881621  0.6392921415361101
  0.7774349879192854  0.8879636035998644  0.1376773016814070
  0.7777130047973699  0.8885838707173974  0.6387064872331862
  0.2226612547202507  0.1123105602946453  0.3631050686173793
  0.2273911137451137  0.1135773916260447  0.8591314725958767
  0.2217442988790239  0.4450177499686347  0.3627515313212655
  0.2223853329053753  0.4448605991498980  0.8621767968098055
  0.2215505646309452  0.7789631633694185  0.3628190291202458
  0.2229231057215273  0.7788017974223607  0.8622552272526320
  0.5540500236660577  0.1117619688849842  0.3630561837200972
  0.5546331256312556  0.1136804307608585  0.8591903811103165
  0.5548926472806173  0.4444350623735573  0.3631335542795711
  0.5539873731913687  0.4408011478456046  0.8586288691670347
  0.5550067312400770  0.7782286980713522  0.3619893602539932
  0.5560458587831860  0.7783388781942548  0.8618259969479851
  0.8882826997095350  0.1117241321417168  0.3619622343712265
  0.8901513307932376  0.1112960694368965  0.8616878852230840
  0.8878399280056541  0.4448001242619597  0.3626376662528727
  0.8895594584093161  0.4447472644714026  0.8624553704464901
  0.8882164098518004  0.7789016469257177  0.3620267853844084
  0.8893456375394990  0.7782353769382553  0.8618525175657652
 
  0.00000000E+00  0.00000000E+00  0.00000000E+00
  0.00000000E+00  0.00000000E+00  0.00000000E+00
  0.00000000E+00  0.00000000E+00  0.00000000E+00
  0.00000000E+00  0.00000000E+00  0.00000000E+00
  0.00000000E+00  0.00000000E+00  0.00000000E+00
  0.00000000E+00  0.00000000E+00  0.00000000E+00
  0.00000000E+00  0.00000000E+00  0.00000000E+00
  0.00000000E+00  0.00000000E+00  0.00000000E+00
  0.00000000E+00  0.00000000E+00  0.00000000E+00
  0.00000000E+00  0.00000000E+00  0.00000000E+00
  0.00000000E+00  0.00000000E+00  0.00000000E+00
  0.00000000E+00  0.00000000E+00  0.00000000E+00
  0.00000000E+00  0.00000000E+00  0.00000000E+00
  0.00000000E+00  0.00000000E+00  0.00000000E+00
  0.00000000E+00  0.00000000E+00  0.00000000E+00
  0.00000000E+00  0.00000000E+00  0.00000000E+00
  0.00000000E+00  0.00000000E+00  0.00000000E+00
  0.00000000E+00  0.00000000E+00  0.00000000E+00
  0.00000000E+00  0.00000000E+00  0.00000000E+00
  0.00000000E+00  0.00000000E+00  0.00000000E+00
  0.00000000E+00  0.00000000E+00  0.00000000E+00
  0.00000000E+00  0.00000000E+00  0.00000000E+00
  0.00000000E+00  0.00000000E+00  0.00000000E+00
  0.00000000E+00  0.00000000E+00  0.00000000E+00
  0.00000000E+00  0.00000000E+00  0.00000000E+00
  0.00000000E+00  0.00000000E+00  0.00000000E+00
  0.00000000E+00  0.00000000E+00  0.00000000E+00
  0.00000000E+00  0.00000000E+00  0.00000000E+00
  0.00000000E+00  0.00000000E+00  0.00000000E+00
  0.00000000E+00  0.00000000E+00  0.00000000E+00
  0.00000000E+00  0.00000000E+00  0.00000000E+00
  0.00000000E+00  0.00000000E+00  0.00000000E+00
  0.00000000E+00  0.00000000E+00  0.00000000E+00
  0.00000000E+00  0.00000000E+00  0.00000000E+00
  0.00000000E+00  0.00000000E+00  0.00000000E+00
  0.00000000E+00  0.00000000E+00  0.00000000E+00
  0.00000000E+00  0.00000000E+00  0.00000000E+00
  0.00000000E+00  0.00000000E+00  0.00000000E+00
  0.00000000E+00  0.00000000E+00  0.00000000E+00
  0.00000000E+00  0.00000000E+00  0.00000000E+00
  0.00000000E+00  0.00000000E+00  0.00000000E+00
  0.00000000E+00  0.00000000E+00  0.00000000E+00
  0.00000000E+00  0.00000000E+00  0.00000000E+00
  0.00000000E+00  0.00000000E+00  0.00000000E+00
  0.00000000E+00  0.00000000E+00  0.00000000E+00
  0.00000000E+00  0.00000000E+00  0.00000000E+00
  0.00000000E+00  0.00000000E+00  0.00000000E+00
  0.00000000E+00  0.00000000E+00  0.00000000E+00
  0.00000000E+00  0.00000000E+00  0.00000000E+00
  0.00000000E+00  0.00000000E+00  0.00000000E+00
  0.00000000E+00  0.00000000E+00  0.00000000E+00
  0.00000000E+00  0.00000000E+00  0.00000000E+00
  0.00000000E+00  0.00000000E+00  0.00000000E+00
  0.00000000E+00  0.00000000E+00  0.00000000E+00
  0.00000000E+00  0.00000000E+00  0.00000000E+00
  0.00000000E+00  0.00000000E+00  0.00000000E+00
  0.00000000E+00  0.00000000E+00  0.00000000E+00
  0.00000000E+00  0.00000000E+00  0.00000000E+00
  0.00000000E+00  0.00000000E+00  0.00000000E+00
  0.00000000E+00  0.00000000E+00  0.00000000E+00
  0.00000000E+00  0.00000000E+00  0.00000000E+00
  0.00000000E+00  0.00000000E+00  0.00000000E+00
  0.00000000E+00  0.00000000E+00  0.00000000E+00
  0.00000000E+00  0.00000000E+00  0.00000000E+00
  0.00000000E+00  0.00000000E+00  0.00000000E+00
  0.00000000E+00  0.00000000E+00  0.00000000E+00
  0.00000000E+00  0.00000000E+00  0.00000000E+00
  0.00000000E+00  0.00000000E+00  0.00000000E+00
  0.00000000E+00  0.00000000E+00  0.00000000E+00
  0.00000000E+00  0.00000000E+00  0.00000000E+00
  0.00000000E+00  0.00000000E+00  0.00000000E+00
  0.00000000E+00  0.00000000E+00  0.00000000E+00
  0.00000000E+00  0.00000000E+00  0.00000000E+00
  0.00000000E+00  0.00000000E+00  0.00000000E+00
  0.00000000E+00  0.00000000E+00  0.00000000E+00
  0.00000000E+00  0.00000000E+00  0.00000000E+00
  0.00000000E+00  0.00000000E+00  0.00000000E+00
  0.00000000E+00  0.00000000E+00  0.00000000E+00
  0.00000000E+00  0.00000000E+00  0.00000000E+00
  0.00000000E+00  0.00000000E+00  0.00000000E+00
  0.00000000E+00  0.00000000E+00  0.00000000E+00
  0.00000000E+00  0.00000000E+00  0.00000000E+00
  0.00000000E+00  0.00000000E+00  0.00000000E+00
  0.00000000E+00  0.00000000E+00  0.00000000E+00
  0.00000000E+00  0.00000000E+00  0.00000000E+00
  0.00000000E+00  0.00000000E+00  0.00000000E+00
  0.00000000E+00  0.00000000E+00  0.00000000E+00
  0.00000000E+00  0.00000000E+00  0.00000000E+00
  0.00000000E+00  0.00000000E+00  0.00000000E+00
