Sr18 Zn36 P36
1.0
12.217662 0.000684 0.000120
-6.108238 10.580219 0.000077
0.000140 0.000182 14.203699
Sr Zn P
18 36 35
direct
0.333333 0.333333 1.000000 Sr
0.333333 0.333333 0.500000 Sr
0.333333 0.666667 1.000000 Sr
0.333333 0.666667 0.500000 Sr
0.333333 1.000000 1.000000 Sr
0.333333 1.000000 0.500000 Sr
0.666667 0.333333 1.000000 Sr
0.666667 0.333333 0.500000 Sr
0.666667 0.666667 1.000000 Sr
0.666667 0.666667 0.500000 Sr
0.666667 1.000000 1.000000 Sr
0.666667 1.000000 0.500000 Sr
1.000000 0.333333 1.000000 Sr
1.000000 0.333333 0.500000 Sr
1.000000 0.666667 1.000000 Sr
1.000000 0.666667 0.500000 Sr
1.000000 1.000000 1.000000 Sr
1.000000 1.000000 0.500000 Sr
0.111113 0.222223 0.315234 Zn
0.111113 0.222223 0.815234 Zn
0.111113 0.555557 0.315234 Zn
0.111113 0.555557 0.815234 Zn
0.111113 0.888890 0.315234 Zn
0.111113 0.888890 0.815234 Zn
0.444446 0.222223 0.315234 Zn
0.444446 0.222223 0.815234 Zn
0.444446 0.555557 0.315234 Zn
0.444446 0.555557 0.815234 Zn
0.444446 0.888890 0.315234 Zn
0.444446 0.888890 0.815234 Zn
0.777779 0.222223 0.315234 Zn
0.777779 0.222223 0.815234 Zn
0.777779 0.555557 0.315234 Zn
0.777779 0.555557 0.815234 Zn
0.777779 0.888890 0.315234 Zn
0.777779 0.888890 0.815234 Zn
0.222221 0.111110 0.184766 Zn
0.222221 0.111110 0.684766 Zn
0.222221 0.444443 0.184766 Zn
0.222221 0.444443 0.684766 Zn
0.222221 0.777777 0.184766 Zn
0.222221 0.777777 0.684766 Zn
0.555554 0.111110 0.184766 Zn
0.555554 0.111110 0.684766 Zn
0.555554 0.444443 0.184766 Zn
0.555554 0.444443 0.684766 Zn
0.555554 0.777777 0.184766 Zn
0.555554 0.777777 0.684766 Zn
0.888887 0.111110 0.184766 Zn
0.888887 0.111110 0.684766 Zn
0.888887 0.444443 0.184766 Zn
0.888887 0.444443 0.684766 Zn
0.888887 0.777777 0.184766 Zn
0.888887 0.777777 0.684766 Zn
0.111110 0.222222 0.138527 P
0.111110 0.222222 0.638527 P
0.111110 0.555555 0.138527 P
0.111110 0.555555 0.638527 P
0.111110 0.888888 0.138527 P
0.111110 0.888888 0.638527 P
0.444444 0.222222 0.138527 P
0.444444 0.555555 0.138527 P
0.444444 0.555555 0.638527 P
0.444444 0.888888 0.138527 P
0.444444 0.888888 0.638527 P
0.777777 0.222222 0.138527 P
0.777777 0.222222 0.638527 P
0.777777 0.555555 0.138527 P
0.777777 0.555555 0.638527 P
0.777777 0.888888 0.138527 P
0.777777 0.888888 0.638527 P
0.222223 0.111112 0.361472 P
0.222223 0.111112 0.861472 P
0.222223 0.444445 0.361472 P
0.222223 0.444445 0.861472 P
0.222223 0.777778 0.361472 P
0.222223 0.777778 0.861472 P
0.555556 0.111112 0.361472 P
0.555556 0.111112 0.861472 P
0.555556 0.444445 0.361472 P
0.555556 0.444445 0.861472 P
0.555556 0.777778 0.361472 P
0.555556 0.777778 0.861472 P
0.888890 0.111112 0.361472 P
0.888890 0.111112 0.861472 P
0.888890 0.444445 0.361472 P
0.888890 0.444445 0.861472 P
0.888890 0.777778 0.361472 P
0.888890 0.777778 0.861472 P
