Dicalcium strontium phosphide           
   1.00000000000000     
     4.1499604610108412   -0.0000000057066548   -0.0000001026475321
    -0.0000000047933180    4.1499603843959099    0.0000000003151807
    -0.0000004441339340    0.0000000203954597   18.1778910706437493
   Sr   Ca   P 
     2     4     4
Direct
  0.9999995787491300  0.0000000050461158  0.0000005269334604
  0.4999995873926601  0.4999999971963669  0.4999995986701134
  0.0000001762418382  0.9999999861928189  0.3200245309294081
  0.0000001488721783  0.0000000204152321  0.6799750455685070
  0.5000001534954408  0.4999999723925830  0.8200245036313243
  0.5000001391900601  0.5000000248241392  0.1799757274259342
  0.0000000433058002  0.0000000011129770  0.1574318832038037
  0.0000000603524205 -0.0000000058618960  0.8425684563299946
  0.5000000501753438  0.4999999983634965  0.6574329290325165
  0.5000000622251348  0.5000000003181737  0.3425667982749310
 
  0.00000000E+00  0.00000000E+00  0.00000000E+00
  0.00000000E+00  0.00000000E+00  0.00000000E+00
  0.00000000E+00  0.00000000E+00  0.00000000E+00
  0.00000000E+00  0.00000000E+00  0.00000000E+00
  0.00000000E+00  0.00000000E+00  0.00000000E+00
  0.00000000E+00  0.00000000E+00  0.00000000E+00
  0.00000000E+00  0.00000000E+00  0.00000000E+00
  0.00000000E+00  0.00000000E+00  0.00000000E+00
  0.00000000E+00  0.00000000E+00  0.00000000E+00
  0.00000000E+00  0.00000000E+00  0.00000000E+00
