Sr24 P16                                
   1.00000000000000     
    13.9454813570960674   13.9454902665395366   13.8715979683959905
     4.7145638337418019   -4.7145931050389214   -4.6238557015993624
    -4.7145887606090904    4.7145558593157055   -4.6238843462065242
   Sr   P 
    24    16
Direct
  0.2747148486336570  0.3324235645356097  0.8575031864656140
  0.6245258839759558  0.3753374128793823  0.8669614979833398
  0.9576052709442280  0.3967480081201558  0.8789134285808373
  0.0095153545546509  0.1667744072679653  0.4962386911847361
  0.3281197450618336  0.1074695392868890  0.4764407385964873
  0.6606461223444455  0.1121689858259245  0.4976215268756690
  0.1726851276699648  0.5156831802875104  0.6302245353079172
  0.5052134238679287  0.4920770899138134  0.6231044702062647
  0.8238179314144602  0.4676908579458825  0.6382272444234758
  0.2088108324486910  0.9933802700894461  0.0017649411085472
  0.5586176366592710  0.0333550266919218  0.0082716442503639
  0.8757283258457846  0.0060938135951147  0.0239348766685268
  0.0052133926174278  0.6231063599885189  0.4920776263827733
  0.3238186129371243  0.6382327739872409  0.4676931304990219
  0.6726860757837230  0.6302260316221719  0.5156836414646264
  0.1245241135012662  0.8669573093694041  0.3753351818131847
  0.4576056657993917  0.8789130775474234  0.3967494301159391
  0.7747161508534788  0.8575057451742012  0.3324233482819281
  0.1606462263860990  0.4976216632941899  0.1121690052815296
  0.5095164996533654  0.4962398213629839  0.1667734450099374
  0.8281199314484979  0.4764379254192050  0.1074657417074718
  0.0586189683500393  0.0082726531537247  0.0333550322016265
  0.3757282093803340  0.0239357241221896  0.0060965868075371
  0.7088091233947793  0.0017616451231532  0.9933795146528723
  0.2167041965838763  0.2555602033999094  0.3998317176265118
  0.5403564788717716  0.2299069976895893  0.3614190101852941
  0.8787690634221121  0.2619172931380902  0.3976177775714760
  0.2929714685433780  0.7403484162471301  0.1088352193883537
  0.6166287082396593  0.7497223756231506  0.1054505443275033
  0.9545645899639368  0.7613106758768495  0.1256145911341306
  0.0829346820247068  0.6284978739736076  0.8723282158363332
  0.7503963964175000  0.6235222979840103  0.8796871174169141
  0.2503985554574584  0.8796938735943769  0.6235274371936939
  0.5829358016326083  0.8723299197704151  0.6284980941190170
  0.1166285438095613  0.1054492690469502  0.7497216485946794
  0.4545650171996414  0.1256130973334564  0.7613116102931912
  0.7929764730425930  0.1088385201412265  0.7403537547855024
  0.0403570454793751  0.3614206504960791  0.2299095235410817
  0.3787711441735340  0.3976242947047979  0.2619246524926169
  0.7167043616119102  0.3998313543763317  0.2555606196234734
 
  0.00000000E+00  0.00000000E+00  0.00000000E+00
  0.00000000E+00  0.00000000E+00  0.00000000E+00
  0.00000000E+00  0.00000000E+00  0.00000000E+00
  0.00000000E+00  0.00000000E+00  0.00000000E+00
  0.00000000E+00  0.00000000E+00  0.00000000E+00
  0.00000000E+00  0.00000000E+00  0.00000000E+00
  0.00000000E+00  0.00000000E+00  0.00000000E+00
  0.00000000E+00  0.00000000E+00  0.00000000E+00
  0.00000000E+00  0.00000000E+00  0.00000000E+00
  0.00000000E+00  0.00000000E+00  0.00000000E+00
  0.00000000E+00  0.00000000E+00  0.00000000E+00
  0.00000000E+00  0.00000000E+00  0.00000000E+00
  0.00000000E+00  0.00000000E+00  0.00000000E+00
  0.00000000E+00  0.00000000E+00  0.00000000E+00
  0.00000000E+00  0.00000000E+00  0.00000000E+00
  0.00000000E+00  0.00000000E+00  0.00000000E+00
  0.00000000E+00  0.00000000E+00  0.00000000E+00
  0.00000000E+00  0.00000000E+00  0.00000000E+00
  0.00000000E+00  0.00000000E+00  0.00000000E+00
  0.00000000E+00  0.00000000E+00  0.00000000E+00
  0.00000000E+00  0.00000000E+00  0.00000000E+00
  0.00000000E+00  0.00000000E+00  0.00000000E+00
  0.00000000E+00  0.00000000E+00  0.00000000E+00
  0.00000000E+00  0.00000000E+00  0.00000000E+00
  0.00000000E+00  0.00000000E+00  0.00000000E+00
  0.00000000E+00  0.00000000E+00  0.00000000E+00
  0.00000000E+00  0.00000000E+00  0.00000000E+00
  0.00000000E+00  0.00000000E+00  0.00000000E+00
  0.00000000E+00  0.00000000E+00  0.00000000E+00
  0.00000000E+00  0.00000000E+00  0.00000000E+00
  0.00000000E+00  0.00000000E+00  0.00000000E+00
  0.00000000E+00  0.00000000E+00  0.00000000E+00
  0.00000000E+00  0.00000000E+00  0.00000000E+00
  0.00000000E+00  0.00000000E+00  0.00000000E+00
  0.00000000E+00  0.00000000E+00  0.00000000E+00
  0.00000000E+00  0.00000000E+00  0.00000000E+00
  0.00000000E+00  0.00000000E+00  0.00000000E+00
  0.00000000E+00  0.00000000E+00  0.00000000E+00
  0.00000000E+00  0.00000000E+00  0.00000000E+00
  0.00000000E+00  0.00000000E+00  0.00000000E+00
