Calcium distrontium nitride             
   1.00000000000000     
     3.8177530098643735    0.0000007896102778    0.0000027382866870
     0.0000007892756802    3.8177517079528100    0.0000226510696981
     0.0000096519310488    0.0000616932937062   15.2746558325867117
   Sr   Ca   N 
     4     2     4
Direct
  0.9999989818273810  0.9999992557001830  0.3262123186545520
  0.0000009915173486  0.0000003682303087  0.6738195945216643
  0.4999997165149196  0.4999982877820950  0.8262036712828152
  0.4999998829573422  0.5000017836662368  0.1737100249570324
  0.0000005407535280  0.9999992822381898  0.0000474808340363
  0.4999995687496930  0.5000010052881361  0.5000284965299331
  0.0000005075426914  0.0000060179739303  0.1501751890202491
  0.9999990323576911  0.9999940823782660  0.8497138288827872
  0.5000014568140413  0.5000056062705819  0.6503037953212167
  0.4999993209653710  0.4999943104720723  0.3497855999957138
 
  0.00000000E+00  0.00000000E+00  0.00000000E+00
  0.00000000E+00  0.00000000E+00  0.00000000E+00
  0.00000000E+00  0.00000000E+00  0.00000000E+00
  0.00000000E+00  0.00000000E+00  0.00000000E+00
  0.00000000E+00  0.00000000E+00  0.00000000E+00
  0.00000000E+00  0.00000000E+00  0.00000000E+00
  0.00000000E+00  0.00000000E+00  0.00000000E+00
  0.00000000E+00  0.00000000E+00  0.00000000E+00
  0.00000000E+00  0.00000000E+00  0.00000000E+00
  0.00000000E+00  0.00000000E+00  0.00000000E+00
