Sr24 N16                                
   1.00000000000000     
     6.1296833726467366    6.1296627792374911    6.1296787210527341
     6.1296830616359017   -6.1296578208186245   -6.1296833840260678
    -6.1296784189820279    6.1296626849272240   -6.1296835923684494
   Sr   N 
    24    16
Direct
  0.0071890559260498  0.9621959994491652  0.7351042497930858
  0.2729094066437055  0.5378036583145244  0.0449963357000811
  0.4928074062158467  0.7279133179546315  0.4550038250253757
  0.2270919433525398  0.7720852792611913  0.7648959658153748
  0.2720836815548981  0.2648934411435270  0.2270893977600855
  0.2279136221735905  0.9550072754866720  0.4928090119405195
  0.0378040635956316  0.5449939394838235  0.2729106646589987
  0.4621982410689209  0.2351045746751203  0.0071911747192679
  0.0449931528996842  0.7729091373723479  0.0378014066263936
  0.7351078794590009  0.5071918363792307  0.4621986269417963
  0.7648991040654795  0.7270949298055758  0.2720889870718141
  0.4550064988954339  0.9928105982219636  0.2279117086996577
  0.9928072253501107  0.0378036277572702  0.2648940965141983
  0.7270918574780078  0.4621959423040823  0.9550070149634613
  0.5071888585206148  0.2720845888818221  0.5449928120010976
  0.7729093354567096  0.2279126608293487  0.2351057140076150
  0.7279129252887493  0.7351043674592980  0.7729061617517815
  0.7720830030180549  0.0449937823994925  0.5071897842479007
  0.9621981561770876  0.4550071076426662  0.7270937559807575
  0.5378040124058397  0.7648932500300260  0.9928100108561574
  0.9550063327182888  0.2270949035068145  0.9621958145233916
  0.2648989140268861  0.4928103941030939  0.5378041347382712
  0.2351076969804542  0.2729090761619856  0.7279155952608964
  0.5449929526789548  0.0071916458644799  0.7720837399149789
  0.9999988352462275  0.9999951641983784  0.4999997963179076
  0.9999953628947097  0.4999951652625684  0.9999963388658172
  0.4999988220802618  0.4999990337856720  0.5000036627412975
  0.4999953724370616  0.9999990308306627  0.0000002031063713
  0.7075729630639376  0.2500000420069734  0.4575735318500483
  0.7924272197328153  0.7500003640407689  0.0424273423599532
  0.2500005903627961  0.5424272126351162  0.7924341789732039
  0.7499930057855266  0.9575664499202514  0.7075664111072232
  0.4575783841274406  0.2075781927631341  0.7500000819490412
  0.0424332449678148  0.2924331485041551  0.2500007455405034
  0.2924266477376339  0.7499998993096171  0.5424268139466301
  0.2075723857300006  0.2499989009544925  0.9575723146122515
  0.7499991042083557  0.4575655795621680  0.2075727333667375
  0.2499928712380265  0.0424263321002089  0.2924266800912654
  0.5424323630413276  0.7924325473000483  0.2499999192717676
  0.9575775013955599  0.7075776023376245  0.7499992563870086
 
  0.00000000E+00  0.00000000E+00  0.00000000E+00
  0.00000000E+00  0.00000000E+00  0.00000000E+00
  0.00000000E+00  0.00000000E+00  0.00000000E+00
  0.00000000E+00  0.00000000E+00  0.00000000E+00
  0.00000000E+00  0.00000000E+00  0.00000000E+00
  0.00000000E+00  0.00000000E+00  0.00000000E+00
  0.00000000E+00  0.00000000E+00  0.00000000E+00
  0.00000000E+00  0.00000000E+00  0.00000000E+00
  0.00000000E+00  0.00000000E+00  0.00000000E+00
  0.00000000E+00  0.00000000E+00  0.00000000E+00
  0.00000000E+00  0.00000000E+00  0.00000000E+00
  0.00000000E+00  0.00000000E+00  0.00000000E+00
  0.00000000E+00  0.00000000E+00  0.00000000E+00
  0.00000000E+00  0.00000000E+00  0.00000000E+00
  0.00000000E+00  0.00000000E+00  0.00000000E+00
  0.00000000E+00  0.00000000E+00  0.00000000E+00
  0.00000000E+00  0.00000000E+00  0.00000000E+00
  0.00000000E+00  0.00000000E+00  0.00000000E+00
  0.00000000E+00  0.00000000E+00  0.00000000E+00
  0.00000000E+00  0.00000000E+00  0.00000000E+00
  0.00000000E+00  0.00000000E+00  0.00000000E+00
  0.00000000E+00  0.00000000E+00  0.00000000E+00
  0.00000000E+00  0.00000000E+00  0.00000000E+00
  0.00000000E+00  0.00000000E+00  0.00000000E+00
  0.00000000E+00  0.00000000E+00  0.00000000E+00
  0.00000000E+00  0.00000000E+00  0.00000000E+00
  0.00000000E+00  0.00000000E+00  0.00000000E+00
  0.00000000E+00  0.00000000E+00  0.00000000E+00
  0.00000000E+00  0.00000000E+00  0.00000000E+00
  0.00000000E+00  0.00000000E+00  0.00000000E+00
  0.00000000E+00  0.00000000E+00  0.00000000E+00
  0.00000000E+00  0.00000000E+00  0.00000000E+00
  0.00000000E+00  0.00000000E+00  0.00000000E+00
  0.00000000E+00  0.00000000E+00  0.00000000E+00
  0.00000000E+00  0.00000000E+00  0.00000000E+00
  0.00000000E+00  0.00000000E+00  0.00000000E+00
  0.00000000E+00  0.00000000E+00  0.00000000E+00
  0.00000000E+00  0.00000000E+00  0.00000000E+00
  0.00000000E+00  0.00000000E+00  0.00000000E+00
  0.00000000E+00  0.00000000E+00  0.00000000E+00
