Ca2 Zn1 P2                              
   1.00000000000000     
     4.0719957969764637   -0.0013996446449890   -0.0000001083221122
    -2.0372530646971811    3.5257782342513164    0.0000001222342456
    -0.0000002162373421    0.0000001483513990    7.7885627260608725
   Ca   Zn   P 
     2     1     2
Direct
  0.9985032130119326  0.0003686354957778  0.5483314966313503
  0.9985032127847711  0.0003686292570888  0.9516684953379771
  0.6687750080226647  0.3331138972477150  0.2500000072380043
  0.3357868002117685  0.6657689664345136  0.2500000035545172
  0.6650987659688599  0.3337128715649081  0.7499999972381582
 
  0.00000000E+00  0.00000000E+00  0.00000000E+00
  0.00000000E+00  0.00000000E+00  0.00000000E+00
  0.00000000E+00  0.00000000E+00  0.00000000E+00
  0.00000000E+00  0.00000000E+00  0.00000000E+00
  0.00000000E+00  0.00000000E+00  0.00000000E+00
