Calcium distrontium phosphide           
   1.00000000000000     
     4.3869727881831855   -0.0000000059733439    0.0000000084515082
    -0.0000000092983266    4.3869727426514347    0.0000000088900486
     0.0000000417474194    0.0000000246311775   17.7723861970627262
   Sr   Ca   P 
     4     2     4
Direct
  0.0000000991591449  0.9999999985710275  0.3263831319522836
  0.0000001130504401  0.0000000001013731  0.6736175698104176
  0.5000001102708822  0.4999999998852473  0.8263874645712121
  0.5000001027255934  0.5000000007112533  0.1736117756171822
  0.9999998602317746  0.0000000022888145  0.9999994309762030
  0.4999998599224043  0.4999999998307416  0.5000006444123173
  0.9999999603094949  0.0000000009160246  0.1506893429383638
  0.9999999686199104  0.9999999993226325  0.8493102756470066
  0.4999999692939028  0.5000000003063647  0.6506831831516351
  0.4999999564164597  0.4999999980665280  0.3493171809233715
 
  0.00000000E+00  0.00000000E+00  0.00000000E+00
  0.00000000E+00  0.00000000E+00  0.00000000E+00
  0.00000000E+00  0.00000000E+00  0.00000000E+00
  0.00000000E+00  0.00000000E+00  0.00000000E+00
  0.00000000E+00  0.00000000E+00  0.00000000E+00
  0.00000000E+00  0.00000000E+00  0.00000000E+00
  0.00000000E+00  0.00000000E+00  0.00000000E+00
  0.00000000E+00  0.00000000E+00  0.00000000E+00
  0.00000000E+00  0.00000000E+00  0.00000000E+00
  0.00000000E+00  0.00000000E+00  0.00000000E+00
