Calcium dizinc phosphide                
   1.00000000000000     
     4.3936949464541026    0.0000713792520752   -0.0000135088607299
    -2.1967688555183043    3.8050976388945785    0.0000136823765966
    -0.0000224916936238    0.0000133351265727    7.3273856406878926
   Sr   Ca   Zn   P 
     1     1     1     2
Direct
  0.0000005329036341  0.9999996114035312  0.0078103502080538
  0.3333320593250093  0.6666679469064647  0.6245119704676938
  0.6666629291807382  0.3333371275946746  0.3689105152390439
  0.3333341505942471  0.6666659039939020  0.2537427908687562
  0.6666702679963663  0.3333294101014346  0.7450244032164619
 
  0.00000000E+00  0.00000000E+00  0.00000000E+00
  0.00000000E+00  0.00000000E+00  0.00000000E+00
  0.00000000E+00  0.00000000E+00  0.00000000E+00
  0.00000000E+00  0.00000000E+00  0.00000000E+00
  0.00000000E+00  0.00000000E+00  0.00000000E+00
