Dicalcium strontium nitride             
   1.00000000000000     
     3.5675083225440058   -0.0000000015296493    0.0000000195813387
     0.0000000010801524    3.5675083193891202    0.0000000125816408
     0.0000001564591772    0.0000000092214396   15.6612689671422185
   Sr   Ca   N 
     2     4     4
Direct
  0.0000005671402681  0.9999999179314500 -0.0000933103564504
  0.5000002868470669  0.4999999688825713  0.5001266292220655
  0.9999998180180467  0.0000000029377501  0.3200774205914532
  0.9999998729659367  0.0000000122141080  0.6799761505170221
  0.4999998844385546  0.5000000081290907  0.8201797098814159
  0.4999998906293435  0.5000000055981223  0.1797020304062080
  0.9999999285984855  0.0000000258008178  0.1595405450065527
 -0.0000000782566362  0.0000000310466975  0.8404305099708596
  0.4999999134318610  0.5000000210711322  0.6596267261465358
  0.4999999161870731  0.5000000063882597  0.3404335886143372
 
  0.00000000E+00  0.00000000E+00  0.00000000E+00
  0.00000000E+00  0.00000000E+00  0.00000000E+00
  0.00000000E+00  0.00000000E+00  0.00000000E+00
  0.00000000E+00  0.00000000E+00  0.00000000E+00
  0.00000000E+00  0.00000000E+00  0.00000000E+00
  0.00000000E+00  0.00000000E+00  0.00000000E+00
  0.00000000E+00  0.00000000E+00  0.00000000E+00
  0.00000000E+00  0.00000000E+00  0.00000000E+00
  0.00000000E+00  0.00000000E+00  0.00000000E+00
  0.00000000E+00  0.00000000E+00  0.00000000E+00
