Calcium dizinc nitride                  
   1.00000000000000     
     3.1071260892186370    0.0000000338196039   -0.0000000436942842
     0.0000000349825933    3.1071260128887412    0.0000000224789104
    -0.0000001960088710    0.0000000889813859   13.4510577302190395
   Ca   Zn   N 
     2     4     4
Direct
  0.0000000959582994 -0.0000000006949446  0.0000009091966307
  0.5000000871858121  0.5000000046909356  0.4999983986660642
  0.9999999978920736  0.0000000039833528  0.3200961294536870
  0.9999999937761110 -0.0000000183533638  0.6799041212366959
  0.4999999825996206  0.4999999971266486  0.8200960850737538
  0.5000000005663058  0.5000000069736698  0.1799039457597188
  0.9999999555902037  0.9999999936619990  0.1660574374343868
  0.9999999613182894  0.0000000163139436  0.8339412968017726
  0.4999999400943257  0.5000000212602018  0.6660579790246521
  0.4999999850189581  0.4999999750375784  0.3339436973526522
 
  0.00000000E+00  0.00000000E+00  0.00000000E+00
  0.00000000E+00  0.00000000E+00  0.00000000E+00
  0.00000000E+00  0.00000000E+00  0.00000000E+00
  0.00000000E+00  0.00000000E+00  0.00000000E+00
  0.00000000E+00  0.00000000E+00  0.00000000E+00
  0.00000000E+00  0.00000000E+00  0.00000000E+00
  0.00000000E+00  0.00000000E+00  0.00000000E+00
  0.00000000E+00  0.00000000E+00  0.00000000E+00
  0.00000000E+00  0.00000000E+00  0.00000000E+00
  0.00000000E+00  0.00000000E+00  0.00000000E+00
