Calcium Strontium Zinc phosphide        
   1.00000000000000     
     8.3775029559875041    0.0000026921239403   -0.0000127942143342
     0.0000027487141527    8.3774724274170485   -0.0000233668320150
    -0.0000137632100772   -0.0000246027109980    9.4514099339283373
   Zn   Sr   Ca   N 
     8     8     8    16
Direct
  0.7499990594442424  0.5305963249591461  0.1439428546916938
  0.2499987311646665  0.0306050119855521  0.8560530977905361
  0.2499984747606472  0.4694011962537739  0.8560553001635196
  0.4694188870326557  0.2499997692838471  0.3560622833222213
  0.0306111046062836  0.2499997913012338  0.3560529566080428
  0.7499988519223780  0.9693982783776851  0.1439449550140400
  0.5306119189111312  0.7499996305689171  0.6439479094133990
  0.9694133068491746  0.7499993237804861  0.6439408387027350
  0.7500031161529750  0.5081009388883372  0.8026900175968313
  0.9918996002082333  0.7500008115755904  0.3027025027745039
  0.2500009214906245  0.4918990044442705  0.1973103991900253
  0.7500026439253041  0.9918986202257893  0.8026868674121466
  0.2500014064822608  0.0081010083647312  0.1973132645197602
  0.0081010996272086  0.2499995679434484  0.6973275032594410
  0.5080971551438056  0.7500002692716541  0.3026737326699457
  0.4919032492922530  0.2499997948682867  0.6972953153769189
  0.7499946850833594  0.4663532229080043  0.4365150106451264
  0.2499926254861062  0.5336464840481403  0.5634858105100006
  0.7499926733077827  0.0336522646249759  0.4365116454390710
  0.2499935133606165  0.9663480908718455  0.5634885922890472
  0.0336500108188439  0.7500009063440657  0.9365306858577953
  0.9663426804607431  0.2499982221622788  0.0635019988581364
  0.4663486761272493  0.7500004469245843  0.9364992063674968
  0.5336444191304615  0.2500001552137893  0.0634665117447892
  0.7500004713686524  0.2499993987400594  0.9230533739200354
  0.2500060567194509  0.7500006147359525  0.0769470148836507
  0.2500081636942521  0.7499976256938777  0.4230548558998096
  0.7500115330029017  0.2500026474690202  0.5769448774678230
  0.7499850720629344  0.7499991950954236  0.0423038557057483
  0.2499814619575853  0.2500009085687563  0.9576970235590024
  0.7500003010676117  0.7500024960231451  0.5423060515157468
  0.2500009265407158  0.2499975177956648  0.4576934637410254
  0.0484480698893087  0.5484512491567441  0.7500052981346921
  0.9515493102831480  0.4515522769137113  0.2500043716600076
  0.4515492326096385  0.9515529969028031  0.7499966480917374
  0.5484467165678190  0.0484507583961211  0.2499932739684294
  0.9515481221384855  0.0484468433025970  0.2500037432028186
  0.0484489107429358  0.9515494976876632  0.7500061517792334
  0.5484472845066363  0.4515499671208171  0.2499948488411647
  0.4515495450589184  0.5484468602072058  0.7499958344118657
 
  0.00000000E+00  0.00000000E+00  0.00000000E+00
  0.00000000E+00  0.00000000E+00  0.00000000E+00
  0.00000000E+00  0.00000000E+00  0.00000000E+00
  0.00000000E+00  0.00000000E+00  0.00000000E+00
  0.00000000E+00  0.00000000E+00  0.00000000E+00
  0.00000000E+00  0.00000000E+00  0.00000000E+00
  0.00000000E+00  0.00000000E+00  0.00000000E+00
  0.00000000E+00  0.00000000E+00  0.00000000E+00
  0.00000000E+00  0.00000000E+00  0.00000000E+00
  0.00000000E+00  0.00000000E+00  0.00000000E+00
  0.00000000E+00  0.00000000E+00  0.00000000E+00
  0.00000000E+00  0.00000000E+00  0.00000000E+00
  0.00000000E+00  0.00000000E+00  0.00000000E+00
  0.00000000E+00  0.00000000E+00  0.00000000E+00
  0.00000000E+00  0.00000000E+00  0.00000000E+00
  0.00000000E+00  0.00000000E+00  0.00000000E+00
  0.00000000E+00  0.00000000E+00  0.00000000E+00
  0.00000000E+00  0.00000000E+00  0.00000000E+00
  0.00000000E+00  0.00000000E+00  0.00000000E+00
  0.00000000E+00  0.00000000E+00  0.00000000E+00
  0.00000000E+00  0.00000000E+00  0.00000000E+00
  0.00000000E+00  0.00000000E+00  0.00000000E+00
  0.00000000E+00  0.00000000E+00  0.00000000E+00
  0.00000000E+00  0.00000000E+00  0.00000000E+00
  0.00000000E+00  0.00000000E+00  0.00000000E+00
  0.00000000E+00  0.00000000E+00  0.00000000E+00
  0.00000000E+00  0.00000000E+00  0.00000000E+00
  0.00000000E+00  0.00000000E+00  0.00000000E+00
  0.00000000E+00  0.00000000E+00  0.00000000E+00
  0.00000000E+00  0.00000000E+00  0.00000000E+00
  0.00000000E+00  0.00000000E+00  0.00000000E+00
  0.00000000E+00  0.00000000E+00  0.00000000E+00
  0.00000000E+00  0.00000000E+00  0.00000000E+00
  0.00000000E+00  0.00000000E+00  0.00000000E+00
  0.00000000E+00  0.00000000E+00  0.00000000E+00
  0.00000000E+00  0.00000000E+00  0.00000000E+00
  0.00000000E+00  0.00000000E+00  0.00000000E+00
  0.00000000E+00  0.00000000E+00  0.00000000E+00
  0.00000000E+00  0.00000000E+00  0.00000000E+00
  0.00000000E+00  0.00000000E+00  0.00000000E+00
