Ca9 P6                                  
   1.00000000000000     
     8.4398786740777325   -0.0005981289248187   -0.0000149483685163
    -4.2196621567150450    7.3093290990715722    0.0000304186617447
    -0.0000195008989647    0.0000503957521039    6.2799846345466079
   Ca   P 
     9     6
Direct
  0.6666708706025561  0.3333426296765929  0.4999873589455022
  0.3333318241432524  0.6666660775772729  0.5000000608004100
  0.3333297617245436  0.6666557142569526 -0.0000030827711950
  0.7141300052039228  0.6997601414436285  0.2314687792403871
  0.3002484674233915  0.0143666009192041  0.2314615057895355
  0.9856275773033633  0.2858747109678154  0.2314731054585468
  0.3002571716436168  0.2858612594075399  0.7685364462569600
  0.7141299419612124  0.0144012463567053  0.7685443445419802
  0.9856081197312179  0.6997425727828311  0.7685486175124502
  0.3557650224972529  0.3709591003552896  0.2576627097997419
  0.6290401233017401  0.9847898172956336  0.2576644058710671
  0.0151931677061977  0.6442336117869564  0.2576538771317499
  0.6290479840703619  0.6442315773644880  0.7423368487277249
  0.3557651812387759  0.9848241227728665  0.7423305351707865
  0.0151877814485981  0.3709578170362201  0.7423344875243597
 
  0.00000000E+00  0.00000000E+00  0.00000000E+00
  0.00000000E+00  0.00000000E+00  0.00000000E+00
  0.00000000E+00  0.00000000E+00  0.00000000E+00
  0.00000000E+00  0.00000000E+00  0.00000000E+00
  0.00000000E+00  0.00000000E+00  0.00000000E+00
  0.00000000E+00  0.00000000E+00  0.00000000E+00
  0.00000000E+00  0.00000000E+00  0.00000000E+00
  0.00000000E+00  0.00000000E+00  0.00000000E+00
  0.00000000E+00  0.00000000E+00  0.00000000E+00
  0.00000000E+00  0.00000000E+00  0.00000000E+00
  0.00000000E+00  0.00000000E+00  0.00000000E+00
  0.00000000E+00  0.00000000E+00  0.00000000E+00
  0.00000000E+00  0.00000000E+00  0.00000000E+00
  0.00000000E+00  0.00000000E+00  0.00000000E+00
  0.00000000E+00  0.00000000E+00  0.00000000E+00
