Calcium Strontium Zinc phosphide        
   1.00000000000000     
     9.8373520390090725   -0.0000249826751904    0.0001984100009755
    -0.0000248907054497    9.8385533723580938    0.0016813738906965
     0.0002190573126661    0.0018378342506772   10.6134392148322441
   Zn   Sr   Ca   P 
     8     8     8    16
Direct
  0.7500216633334854  0.5164515492084755  0.1426358119395274
  0.2500324404906658  0.0163001997042637  0.8574422235223255
  0.2500210902126214  0.4835493124054257  0.8573625389757007
  0.4836146404366241  0.2500739802991710  0.3574010466532745
  0.0162824317395651  0.2500402796020627  0.3575008159476908
  0.7500169239805083  0.9837025538290338  0.1425527477613226
  0.5163019227435952  0.7499515027581950  0.6425173840478605
  0.9836409797993414  0.7499271944717001  0.6425819495211554
  0.7500065476147126  0.5176138804422679  0.7919521145480336
  0.9823535891676616  0.7500526143530430  0.2920406917305585
  0.2499925171592001  0.4823954273925516  0.2080300465415530
  0.7500175796284226  0.9823243161214165  0.7920600752355921
  0.2499960872042191  0.0176752292856768  0.2079319538556304
  0.0176621213583926  0.2499194261850892  0.7080989271769400
  0.5176491532854786  0.7500839284281483  0.2919184602583388
  0.4823734818217190  0.2499434062469086  0.7079552171187050
  0.7499388722107324  0.4713490163094070  0.4375861004958776
  0.2499510445738421  0.5286523953010297  0.5624103066697645
  0.7499318711519831  0.0286931883263844  0.4376552478605028
  0.2499521666099405  0.9713083811096287  0.5623465152684179
  0.0287119507688182  0.7499441084265650  0.9375899934440893
  0.9712883435478724  0.2500570049810637  0.0624785596667673
  0.4712968114734279  0.7499383671096299  0.9375301490432100
  0.5287060360029566  0.2500582774834551  0.0624053434017386
  0.7500516750305407  0.2499010345634552  0.9169337422469217
  0.2500417345753128  0.7501054772325151  0.0830672529314050
  0.2500519394020144  0.7499815822948804  0.4169548317012319
  0.7500945776589822  0.2500221033979691  0.5830386691497736
  0.7499997040437028  0.7501151136516711  0.0446064842627241
  0.2500062224499313  0.2498827910886918  0.9553861070627343
  0.7499827585274219  0.7499282988702622  0.5445646711020850
  0.2499709653630803  0.2500709829939083  0.4554517669236977
  0.0454847581257931  0.5453825309615220  0.7500971942288406
  0.9545209755878920  0.4546029190311350  0.2500118183201447
  0.4545583852000593  0.9544582473627063  0.7498595902856559
  0.5454572665476608  0.0455914398404743  0.2500752497768834
  0.9545325738993463  0.0455323189471039  0.2501360449503687
  0.0454837347563985  0.9544084019489486  0.7499345395515128
  0.5454710427020385  0.4546217659171943  0.2499047050941890
  0.4545314088140346  0.5453894411169720  0.7499930587272393
 
  0.00000000E+00  0.00000000E+00  0.00000000E+00
  0.00000000E+00  0.00000000E+00  0.00000000E+00
  0.00000000E+00  0.00000000E+00  0.00000000E+00
  0.00000000E+00  0.00000000E+00  0.00000000E+00
  0.00000000E+00  0.00000000E+00  0.00000000E+00
  0.00000000E+00  0.00000000E+00  0.00000000E+00
  0.00000000E+00  0.00000000E+00  0.00000000E+00
  0.00000000E+00  0.00000000E+00  0.00000000E+00
  0.00000000E+00  0.00000000E+00  0.00000000E+00
  0.00000000E+00  0.00000000E+00  0.00000000E+00
  0.00000000E+00  0.00000000E+00  0.00000000E+00
  0.00000000E+00  0.00000000E+00  0.00000000E+00
  0.00000000E+00  0.00000000E+00  0.00000000E+00
  0.00000000E+00  0.00000000E+00  0.00000000E+00
  0.00000000E+00  0.00000000E+00  0.00000000E+00
  0.00000000E+00  0.00000000E+00  0.00000000E+00
  0.00000000E+00  0.00000000E+00  0.00000000E+00
  0.00000000E+00  0.00000000E+00  0.00000000E+00
  0.00000000E+00  0.00000000E+00  0.00000000E+00
  0.00000000E+00  0.00000000E+00  0.00000000E+00
  0.00000000E+00  0.00000000E+00  0.00000000E+00
  0.00000000E+00  0.00000000E+00  0.00000000E+00
  0.00000000E+00  0.00000000E+00  0.00000000E+00
  0.00000000E+00  0.00000000E+00  0.00000000E+00
  0.00000000E+00  0.00000000E+00  0.00000000E+00
  0.00000000E+00  0.00000000E+00  0.00000000E+00
  0.00000000E+00  0.00000000E+00  0.00000000E+00
  0.00000000E+00  0.00000000E+00  0.00000000E+00
  0.00000000E+00  0.00000000E+00  0.00000000E+00
  0.00000000E+00  0.00000000E+00  0.00000000E+00
  0.00000000E+00  0.00000000E+00  0.00000000E+00
  0.00000000E+00  0.00000000E+00  0.00000000E+00
  0.00000000E+00  0.00000000E+00  0.00000000E+00
  0.00000000E+00  0.00000000E+00  0.00000000E+00
  0.00000000E+00  0.00000000E+00  0.00000000E+00
  0.00000000E+00  0.00000000E+00  0.00000000E+00
  0.00000000E+00  0.00000000E+00  0.00000000E+00
  0.00000000E+00  0.00000000E+00  0.00000000E+00
  0.00000000E+00  0.00000000E+00  0.00000000E+00
  0.00000000E+00  0.00000000E+00  0.00000000E+00
