Strontium dinitridozincate              
   1.00000000000000     
     3.1410667516469628    0.0000013828043316   -0.0000007759689367
     0.0000013831061144    3.1410668271807820    0.0000000301889343
    -0.0000030756432107    0.0000001967371823   14.1465107214292143
   Zn   Sr   N 
     4     2     4
Direct
  0.0000001331405730  0.0000000200153337  0.3149654189036758
  0.9999997470668875  0.0000000389458513  0.6850490505597147
  0.5000002857944504  0.5000000701696048  0.8149479004832761
  0.4999998352147993  0.5000000207746910  0.1850575698329585
  0.9999992886512367 -0.0000000027390073  0.9999866148000107
  0.4999992497799500  0.4999999626181747  0.5000002985052113
  0.0000002773161800  0.9999999923146087  0.1696703067808976
  0.0000004485783245  0.9999999904293673  0.8303189564820843
  0.5000002768211511  0.4999999846576523  0.6696755624489911
  0.5000004576364475  0.4999999228137166  0.3303283212031726
 
  0.00000000E+00  0.00000000E+00  0.00000000E+00
  0.00000000E+00  0.00000000E+00  0.00000000E+00
  0.00000000E+00  0.00000000E+00  0.00000000E+00
  0.00000000E+00  0.00000000E+00  0.00000000E+00
  0.00000000E+00  0.00000000E+00  0.00000000E+00
  0.00000000E+00  0.00000000E+00  0.00000000E+00
  0.00000000E+00  0.00000000E+00  0.00000000E+00
  0.00000000E+00  0.00000000E+00  0.00000000E+00
  0.00000000E+00  0.00000000E+00  0.00000000E+00
  0.00000000E+00  0.00000000E+00  0.00000000E+00
