Ca24 N16                                
   1.00000000000000     
     5.7075691451040074    5.7075850386574301    5.7076307920949709
     5.7075691037091101   -5.7076472643567389   -5.7075685618425807
    -5.7076313532137757    5.7075849983139406   -5.7075685884755050
   Ca   N 
    24    16
Direct
  0.0070677632292941  0.9633413328853209  0.7355721128299066
  0.2722331324679104  0.5366598764174313  0.0437240940966888
  0.4929348058398375  0.7285081032301548  0.4562737100349281
  0.2277677461115601  0.7714928902515723  0.7644221599155969
  0.2714923915794003  0.2644234746286358  0.2277670943889589
  0.2285104062842223  0.9562724444590245  0.4929341900958235
  0.0366589011455574  0.5437250588823872  0.2722332654644291
  0.4633377690280298  0.2355725916672995  0.0070646300806061
  0.0437273862906693  0.7722346900973207  0.0366616206060044
  0.7355694694736670  0.5070655376331672  0.4633366673754438
  0.7644211953935383  0.7277653358420437  0.2714900277282908
  0.4562733272617194  0.9929329758189098  0.2285096460869198
  0.9929359861175087  0.0366616169442366  0.2644303082004171
  0.7277673945875023  0.4633430827371541  0.9562751051409251
  0.5070689282914742  0.2714932006604869  0.5437271188378290
  0.7722327850769091  0.2285084432024718  0.2355754235417891
  0.7285107351146038  0.7355783322005323  0.7722362910504046
  0.7714927182492843  0.0437272272778344  0.5070670994023487
  0.9633395037291805  0.4562746689254524  0.7277633523794407
  0.5366606353480563  0.7644291986211442  0.9929340400741395
  0.9562755495566861  0.2277649940938389  0.9633416242682955
  0.2644269312900107  0.4929341303469315  0.5366601227572474
  0.2355751987018806  0.2722342582485311  0.7285066967932465
  0.5437295586029052  0.0070667078249826  0.7714936178236300
  0.9999996458118403  0.0000013162682535  0.4999982231495679
  0.0000030931772415  0.5000013214026069  0.0000016714442665
  0.4999996493115262  0.5000014265289821  0.4999983385802409
  0.5000030904246202  0.0000014235083796  0.0000017784636057
  0.7102194938598245  0.2499987824760410  0.4602201201862144
  0.7897777720325223  0.7499989683534949  0.0397777140153366
  0.2499988290942809  0.5397746804640349  0.7897729882593865
  0.7500003060130283  0.9602245415529751  0.7102243041386487
  0.4602155512896786  0.2102150565587948  0.7499986666369196
  0.0397731155876926  0.2897730625393109  0.2499991031631268
  0.2897804651333047  0.7500014368299901  0.5397801074961421
  0.2102221954729941  0.2500007586676816  0.9602220432870681
  0.7500006249867184  0.4602266900771781  0.2102250988529377
  0.2500029722578390  0.0397768355763404  0.2897775988732576
  0.5397752644871900  0.7897757593547041  0.2500013234874388
  0.9602177122882907  0.7102177669443677  0.7500009009925250
 
  0.00000000E+00  0.00000000E+00  0.00000000E+00
  0.00000000E+00  0.00000000E+00  0.00000000E+00
  0.00000000E+00  0.00000000E+00  0.00000000E+00
  0.00000000E+00  0.00000000E+00  0.00000000E+00
  0.00000000E+00  0.00000000E+00  0.00000000E+00
  0.00000000E+00  0.00000000E+00  0.00000000E+00
  0.00000000E+00  0.00000000E+00  0.00000000E+00
  0.00000000E+00  0.00000000E+00  0.00000000E+00
  0.00000000E+00  0.00000000E+00  0.00000000E+00
  0.00000000E+00  0.00000000E+00  0.00000000E+00
  0.00000000E+00  0.00000000E+00  0.00000000E+00
  0.00000000E+00  0.00000000E+00  0.00000000E+00
  0.00000000E+00  0.00000000E+00  0.00000000E+00
  0.00000000E+00  0.00000000E+00  0.00000000E+00
  0.00000000E+00  0.00000000E+00  0.00000000E+00
  0.00000000E+00  0.00000000E+00  0.00000000E+00
  0.00000000E+00  0.00000000E+00  0.00000000E+00
  0.00000000E+00  0.00000000E+00  0.00000000E+00
  0.00000000E+00  0.00000000E+00  0.00000000E+00
  0.00000000E+00  0.00000000E+00  0.00000000E+00
  0.00000000E+00  0.00000000E+00  0.00000000E+00
  0.00000000E+00  0.00000000E+00  0.00000000E+00
  0.00000000E+00  0.00000000E+00  0.00000000E+00
  0.00000000E+00  0.00000000E+00  0.00000000E+00
  0.00000000E+00  0.00000000E+00  0.00000000E+00
  0.00000000E+00  0.00000000E+00  0.00000000E+00
  0.00000000E+00  0.00000000E+00  0.00000000E+00
  0.00000000E+00  0.00000000E+00  0.00000000E+00
  0.00000000E+00  0.00000000E+00  0.00000000E+00
  0.00000000E+00  0.00000000E+00  0.00000000E+00
  0.00000000E+00  0.00000000E+00  0.00000000E+00
  0.00000000E+00  0.00000000E+00  0.00000000E+00
  0.00000000E+00  0.00000000E+00  0.00000000E+00
  0.00000000E+00  0.00000000E+00  0.00000000E+00
  0.00000000E+00  0.00000000E+00  0.00000000E+00
  0.00000000E+00  0.00000000E+00  0.00000000E+00
  0.00000000E+00  0.00000000E+00  0.00000000E+00
  0.00000000E+00  0.00000000E+00  0.00000000E+00
  0.00000000E+00  0.00000000E+00  0.00000000E+00
  0.00000000E+00  0.00000000E+00  0.00000000E+00
