Zinc phosphide                          
   1.00000000000000     
     8.0201686238771757    0.0000000407842707    0.0000023153506907
     0.0000000418805674    8.0201653334403442    0.0000021604629132
     0.0000032233597632    0.0000030251095081   11.2558669338201671
   Zn   P 
    24    16
Direct
  0.7500000457137069  0.5352161022497773  0.1354494203650254
  0.2499999564354614  0.4647838887399291  0.8645505797884013
  0.7500000447893768  0.9647838254047050  0.1354492674342175
  0.2499999578227420  0.0352161794868339  0.8645507335983659
  0.9647838625388697  0.7500000398876721  0.6354491942560749
  0.0352162019051751  0.2499999583041720  0.3645506978781147
  0.5352161306855060  0.7500000407835155  0.6354494535572062
  0.4647839173536460  0.2499999577825450  0.3645506619347924
  0.7500001495172397  0.4658551410575089  0.8564456424189970
  0.2500000311796862  0.5341448667822625  0.1435543369587031
  0.7500001499505581  0.0341455164487116  0.8564463743390073
  0.2500000321940751  0.9658544896203584  0.1435536245414069
  0.0341455464789437  0.7500000535961494  0.3564463853793052
  0.9658542585531452  0.2499999390936488  0.6435536256104402
  0.4658549364430568  0.7500000560665823  0.3564456042250155
  0.5341448691861844  0.2499999377688982  0.6435543545437812
  0.7499998662322040  0.4967354708284700  0.3969102708633923
  0.2499999479294025  0.5032645425804148  0.6030897176682238
  0.7499998750413328  0.0032645667437642  0.3969103913719162
  0.2499999368860125  0.9967354210051447  0.6030896025423030
  0.0032645063702569  0.7499999801531929  0.8969103125602612
  0.9967346691372768  0.2500000151180940  0.1030896095319622
  0.4967347623105930  0.7499999754711042  0.8969102564646030
  0.5032644103340429  0.2500000300071832  0.1030898108815803
  0.7499994045305403  0.2500004499981135  0.9968962689286162
  0.2499994543454659  0.7499995611959325  0.0031037354668530
  0.2500011166648515  0.7500000010204982  0.4968963490865248
  0.7500001902213559  0.2499999999799938  0.5031036378558206
  0.7499992353628233  0.7499998967789774  0.9951947596023704
  0.2499992800522891  0.2500001031547791  0.0048052460982928
  0.7500000003472773  0.7499999534834648  0.4951947768602796
  0.2500002055932038  0.2500000465702847  0.5048052375842099
  0.0038330271809742  0.5038323529251223  0.7499998856921943
  0.9961677491824481  0.4961674797297408  0.2500002611964552
  0.4961679490390045  0.9961672620234320  0.7500001976395062
  0.5038328028346996  0.0038325950770198  0.2499996582058528
  0.9961679930880903  0.0038324799743956  0.2500000399310650
  0.0038327737320659  0.9961676789722999  0.7500001134163780
  0.5038330520140539  0.4961673641210543  0.2499998805989067
  0.4961676898223575  0.5038327690142564  0.7499999701235621
 
  0.00000000E+00  0.00000000E+00  0.00000000E+00
  0.00000000E+00  0.00000000E+00  0.00000000E+00
  0.00000000E+00  0.00000000E+00  0.00000000E+00
  0.00000000E+00  0.00000000E+00  0.00000000E+00
  0.00000000E+00  0.00000000E+00  0.00000000E+00
  0.00000000E+00  0.00000000E+00  0.00000000E+00
  0.00000000E+00  0.00000000E+00  0.00000000E+00
  0.00000000E+00  0.00000000E+00  0.00000000E+00
  0.00000000E+00  0.00000000E+00  0.00000000E+00
  0.00000000E+00  0.00000000E+00  0.00000000E+00
  0.00000000E+00  0.00000000E+00  0.00000000E+00
  0.00000000E+00  0.00000000E+00  0.00000000E+00
  0.00000000E+00  0.00000000E+00  0.00000000E+00
  0.00000000E+00  0.00000000E+00  0.00000000E+00
  0.00000000E+00  0.00000000E+00  0.00000000E+00
  0.00000000E+00  0.00000000E+00  0.00000000E+00
  0.00000000E+00  0.00000000E+00  0.00000000E+00
  0.00000000E+00  0.00000000E+00  0.00000000E+00
  0.00000000E+00  0.00000000E+00  0.00000000E+00
  0.00000000E+00  0.00000000E+00  0.00000000E+00
  0.00000000E+00  0.00000000E+00  0.00000000E+00
  0.00000000E+00  0.00000000E+00  0.00000000E+00
  0.00000000E+00  0.00000000E+00  0.00000000E+00
  0.00000000E+00  0.00000000E+00  0.00000000E+00
  0.00000000E+00  0.00000000E+00  0.00000000E+00
  0.00000000E+00  0.00000000E+00  0.00000000E+00
  0.00000000E+00  0.00000000E+00  0.00000000E+00
  0.00000000E+00  0.00000000E+00  0.00000000E+00
  0.00000000E+00  0.00000000E+00  0.00000000E+00
  0.00000000E+00  0.00000000E+00  0.00000000E+00
  0.00000000E+00  0.00000000E+00  0.00000000E+00
  0.00000000E+00  0.00000000E+00  0.00000000E+00
  0.00000000E+00  0.00000000E+00  0.00000000E+00
  0.00000000E+00  0.00000000E+00  0.00000000E+00
  0.00000000E+00  0.00000000E+00  0.00000000E+00
  0.00000000E+00  0.00000000E+00  0.00000000E+00
  0.00000000E+00  0.00000000E+00  0.00000000E+00
  0.00000000E+00  0.00000000E+00  0.00000000E+00
  0.00000000E+00  0.00000000E+00  0.00000000E+00
  0.00000000E+00  0.00000000E+00  0.00000000E+00
