Sr24 P16
1.0
13.980000 13.980000 13.980000
4.660000 -4.660000 -4.660000
-4.660000 4.660000 -4.660000
Sr P
24 16
direct
0.278000 0.334000 0.834000 Sr2+
0.611333 0.334000 0.834000 Sr2+
0.944667 0.334000 0.834000 Sr2+
0.000000 0.166000 0.500000 Sr2+
0.333333 0.166000 0.500000 Sr2+
0.666667 0.166000 0.500000 Sr2+
0.166667 0.500000 0.666000 Sr2+
0.500000 0.500000 0.666000 Sr2+
0.833333 0.500000 0.666000 Sr2+
0.222000 0.000000 0.000000 Sr2+
0.555333 0.000000 0.000000 Sr2+
0.888667 0.000000 0.000000 Sr2+
1.000000 0.666000 0.500000 Sr2+
0.333333 0.666000 0.500000 Sr2+
0.666667 0.666000 0.500000 Sr2+
0.111333 0.834000 0.334000 Sr2+
0.444667 0.834000 0.334000 Sr2+
0.778000 0.834000 0.334000 Sr2+
0.166667 0.500000 0.166000 Sr2+
0.500000 0.500000 0.166000 Sr2+
0.833333 0.500000 0.166000 Sr2+
0.055333 0.000000 0.000000 Sr2+
0.388667 0.000000 0.000000 Sr2+
0.722000 0.000000 0.000000 Sr2+
0.208333 0.250000 0.375000 P3-
0.541667 0.250000 0.375000 P3-
0.875000 0.250000 0.375000 P3-
0.291667 0.750000 0.125000 P3-
0.625000 0.750000 0.125000 P3-
0.958333 0.750000 0.125000 P3-
0.083333 0.625000 0.875000 P3-
0.750000 0.625000 0.875000 P3-
0.250000 0.875000 0.625000 P3-
0.583333 0.875000 0.625000 P3-
0.125000 0.125000 0.750000 P3-
0.458333 0.125000 0.750000 P3-
0.791667 0.125000 0.750000 P3-
0.041667 0.375000 0.250000 P3-
0.375000 0.375000 0.250000 P3-
0.708333 0.375000 0.250000 P3-
