Zinc nitride                            
   1.00000000000000     
     9.7216378217290202    0.0000006731927951   -0.0000000879365690
     0.0000006731992499    9.7216340879975416    0.0000010890532486
    -0.0000000870023097    0.0000010879532166    9.7216289380793217
   Zn   N 
    48    32
Direct
  0.3973477719253217  0.1499979261835400  0.3742923181629356
  0.6026513482827177  0.8500013877247471  0.6257060560746681
  0.1026513676337555  0.8500015540875101  0.8742940837541390
  0.8973478032205701  0.1499977517252881  0.1257077401588338
  0.6026513432237012  0.6499988796636470  0.1257052596504019
  0.3973475660722553  0.3500017278684358  0.8742927462884188
  0.8973477922638144  0.3500019745346276  0.6257074581189490
  0.1026513537043804  0.6499985197779686  0.3742942221846829
  0.3742939724903204  0.3973485203908276  0.1499989821757231
  0.6257060696406543  0.6026515950317722  0.8500008553298845
  0.8742939455354037  0.1026511915502214  0.8500017043399279
  0.1257061887768415  0.8973483950696421  0.1499989608581721
  0.1257060721467395  0.6026517668389405  0.6499994410891725
  0.8742942948894230  0.3973487573057823  0.3500011975239460
  0.6257059429892109  0.8973485773027877  0.3500012063691565
  0.3742943573699966  0.1026512270838212  0.6499984040381640
  0.1499986863303542  0.3742941624535620  0.3973491171491434
  0.8500025474359513  0.6257057765663763  0.6026502208249680
  0.8500027831997555  0.8742940421919537  0.1026501505812058
  0.1499984778628246  0.1257062398827768  0.8973493588897180
  0.6499985599499221  0.1257058145463862  0.6026506429568654
  0.3500024286457715  0.8742941264164268  0.3973497891567775
  0.3500025616446702  0.6257060776117543  0.8973497966563769
  0.6499985523214520  0.3742943396134416  0.1026503786955808
  0.8973474748113970  0.6499981725521572  0.8742925539393747
  0.1026518004276705  0.3500014131095194  0.1257060231806433
  0.6026513409569279  0.3500010953199297  0.3742943547585609
  0.3973476891828902  0.6499981569475899  0.6257076299360537
  0.1026515477254119  0.1499986022217404  0.6257063530512393
  0.8973477855811857  0.8500022073140048  0.3742920767708144
  0.3973477252552957  0.8500021881050370  0.1257082566700252
  0.6026514280533000  0.1499983340581691  0.8742937001757451
  0.8742940695845342  0.8973486989247993  0.6499985708728178
  0.1257061062247254  0.1026515812015615  0.3500009042286623
  0.3742942437591901  0.6026513533484683  0.3500010465921047
  0.6257058211811877  0.3973486420806972  0.6499994565144920
  0.6257062520134438  0.1026516453240671  0.1499988541864732
  0.3742939870422603  0.8973487607737343  0.8500016797625288
  0.1257060307147445  0.3973486346520494  0.8500010294840860
  0.8742941163223396  0.6026514203725643  0.1499986120688664
  0.6499987295890591  0.8742940228202342  0.8973491047213268
  0.3500025086483491  0.1257058830590990  0.1026500485940035
  0.3500023649084049  0.3742942347256613  0.6026499206128634
  0.6499986426809957  0.6257060866982328  0.3973493141608032
  0.1499985657830405  0.6257054743763144  0.1026504018501972
  0.8500027431998058  0.3742937665389727  0.8973498672186773
  0.8500022588472499  0.1257059901099203  0.3973496724461638
  0.1499991390892343  0.8742940954267586  0.6026505352968926
  0.2499998066348336  0.2499998169503781  0.2500004578625936
  0.7499997023535717  0.7499995190046227  0.7500000376146828
  0.2499999331767302  0.7499999098742592  0.7500003828196410
  0.7499991795915059  0.2500000443974519  0.2499995403436082
  0.7499998431431099  0.7500004270612679  0.2500004527935656
  0.2499998561433427  0.2499997950471472  0.7499999861474094
  0.7500003100061441  0.2500000093458291  0.7500003080532441
  0.2499995592326644  0.7499999716244160  0.2500000484622499
  0.9788953825191318 -0.0000004400536911  0.2500000428435001
  0.0211028635757488  0.0000002662642329  0.7500006151999443
  0.5211024243148372  0.9999998159778030  0.7500001672876914
  0.4788953861987246  0.0000000884477058  0.2500003012238624
  0.0211033479243816  0.5000002217104040  0.2499999339534974
  0.9788948898593050  0.4999998940939943  0.7499998375241899
  0.4788947490884320  0.5000005501034394  0.7500001747552163
  0.5211030863182281  0.4999997499212118  0.2499999681165261
  0.2499991139367597  0.9788959572441573  0.9999992000203224
  0.7499994880892762  0.0211038279600310  0.9999995081609985
  0.7499994954066921  0.5211035441793107 -0.0000000691250244
  0.2499994388977516  0.4788963256976403  0.0000004232544639
  0.2499997813620224  0.0211043743260889  0.5000001360224512
  0.7499991716537978  0.9788955039706954  0.4999999922447609
  0.7499994910963760  0.4788963697407522  0.4999997494510227
  0.2499993331444230  0.5211038574953227  0.4999995288794915
  0.0000012020308856  0.2500009541808879  0.9788954669438286
  0.0000015713671790  0.7500011402805761  0.0211041468966583
  0.0000009002615718  0.7499987962446663  0.5211041503820592
  0.0000018504905714  0.2499988341719090  0.4788957927541287
  0.5000018028581725  0.2499988808389169  0.0211046705117864
  0.5000009404280649  0.7499992252876990  0.9788951239473883
  0.5000012574495594  0.7500012214113924  0.4788957021220303
  0.5000006823077392  0.2500007557159626  0.5211041644109842
 
  0.00000000E+00  0.00000000E+00  0.00000000E+00
  0.00000000E+00  0.00000000E+00  0.00000000E+00
  0.00000000E+00  0.00000000E+00  0.00000000E+00
  0.00000000E+00  0.00000000E+00  0.00000000E+00
  0.00000000E+00  0.00000000E+00  0.00000000E+00
  0.00000000E+00  0.00000000E+00  0.00000000E+00
  0.00000000E+00  0.00000000E+00  0.00000000E+00
  0.00000000E+00  0.00000000E+00  0.00000000E+00
  0.00000000E+00  0.00000000E+00  0.00000000E+00
  0.00000000E+00  0.00000000E+00  0.00000000E+00
  0.00000000E+00  0.00000000E+00  0.00000000E+00
  0.00000000E+00  0.00000000E+00  0.00000000E+00
  0.00000000E+00  0.00000000E+00  0.00000000E+00
  0.00000000E+00  0.00000000E+00  0.00000000E+00
  0.00000000E+00  0.00000000E+00  0.00000000E+00
  0.00000000E+00  0.00000000E+00  0.00000000E+00
  0.00000000E+00  0.00000000E+00  0.00000000E+00
  0.00000000E+00  0.00000000E+00  0.00000000E+00
  0.00000000E+00  0.00000000E+00  0.00000000E+00
  0.00000000E+00  0.00000000E+00  0.00000000E+00
  0.00000000E+00  0.00000000E+00  0.00000000E+00
  0.00000000E+00  0.00000000E+00  0.00000000E+00
  0.00000000E+00  0.00000000E+00  0.00000000E+00
  0.00000000E+00  0.00000000E+00  0.00000000E+00
  0.00000000E+00  0.00000000E+00  0.00000000E+00
  0.00000000E+00  0.00000000E+00  0.00000000E+00
  0.00000000E+00  0.00000000E+00  0.00000000E+00
  0.00000000E+00  0.00000000E+00  0.00000000E+00
  0.00000000E+00  0.00000000E+00  0.00000000E+00
  0.00000000E+00  0.00000000E+00  0.00000000E+00
  0.00000000E+00  0.00000000E+00  0.00000000E+00
  0.00000000E+00  0.00000000E+00  0.00000000E+00
  0.00000000E+00  0.00000000E+00  0.00000000E+00
  0.00000000E+00  0.00000000E+00  0.00000000E+00
  0.00000000E+00  0.00000000E+00  0.00000000E+00
  0.00000000E+00  0.00000000E+00  0.00000000E+00
  0.00000000E+00  0.00000000E+00  0.00000000E+00
  0.00000000E+00  0.00000000E+00  0.00000000E+00
  0.00000000E+00  0.00000000E+00  0.00000000E+00
  0.00000000E+00  0.00000000E+00  0.00000000E+00
  0.00000000E+00  0.00000000E+00  0.00000000E+00
  0.00000000E+00  0.00000000E+00  0.00000000E+00
  0.00000000E+00  0.00000000E+00  0.00000000E+00
  0.00000000E+00  0.00000000E+00  0.00000000E+00
  0.00000000E+00  0.00000000E+00  0.00000000E+00
  0.00000000E+00  0.00000000E+00  0.00000000E+00
  0.00000000E+00  0.00000000E+00  0.00000000E+00
  0.00000000E+00  0.00000000E+00  0.00000000E+00
  0.00000000E+00  0.00000000E+00  0.00000000E+00
  0.00000000E+00  0.00000000E+00  0.00000000E+00
  0.00000000E+00  0.00000000E+00  0.00000000E+00
  0.00000000E+00  0.00000000E+00  0.00000000E+00
  0.00000000E+00  0.00000000E+00  0.00000000E+00
  0.00000000E+00  0.00000000E+00  0.00000000E+00
  0.00000000E+00  0.00000000E+00  0.00000000E+00
  0.00000000E+00  0.00000000E+00  0.00000000E+00
  0.00000000E+00  0.00000000E+00  0.00000000E+00
  0.00000000E+00  0.00000000E+00  0.00000000E+00
  0.00000000E+00  0.00000000E+00  0.00000000E+00
  0.00000000E+00  0.00000000E+00  0.00000000E+00
  0.00000000E+00  0.00000000E+00  0.00000000E+00
  0.00000000E+00  0.00000000E+00  0.00000000E+00
  0.00000000E+00  0.00000000E+00  0.00000000E+00
  0.00000000E+00  0.00000000E+00  0.00000000E+00
  0.00000000E+00  0.00000000E+00  0.00000000E+00
  0.00000000E+00  0.00000000E+00  0.00000000E+00
  0.00000000E+00  0.00000000E+00  0.00000000E+00
  0.00000000E+00  0.00000000E+00  0.00000000E+00
  0.00000000E+00  0.00000000E+00  0.00000000E+00
  0.00000000E+00  0.00000000E+00  0.00000000E+00
  0.00000000E+00  0.00000000E+00  0.00000000E+00
  0.00000000E+00  0.00000000E+00  0.00000000E+00
  0.00000000E+00  0.00000000E+00  0.00000000E+00
  0.00000000E+00  0.00000000E+00  0.00000000E+00
  0.00000000E+00  0.00000000E+00  0.00000000E+00
  0.00000000E+00  0.00000000E+00  0.00000000E+00
  0.00000000E+00  0.00000000E+00  0.00000000E+00
  0.00000000E+00  0.00000000E+00  0.00000000E+00
  0.00000000E+00  0.00000000E+00  0.00000000E+00
  0.00000000E+00  0.00000000E+00  0.00000000E+00
