Calcium Strontium Phosphide
1.0
        8.0888996124         0.0000000000         0.0000000000
        0.0000000000         8.0888996124         0.0000000000
        0.0000000000         0.0000000000        11.4069004059
   Sr   Ca    N
   16    8    16
Direct
     0.750000000         0.533699989         0.134100005
     0.250000000         0.033699989         0.865899980
     0.250000000         0.466300011         0.865899980
     0.466300011         0.250000000         0.365899980
     0.033699989         0.250000000         0.365899980
     0.750000000         0.966300011         0.134100005     
     0.533699989         0.750000000         0.634100020
     0.966300011         0.750000000         0.634100020               
     0.750000000         0.466199994         0.855899990
     0.033800006         0.750000000         0.355899990
     0.250000000         0.533800006         0.144099995
     0.750000000         0.033800006         0.855899990
     0.250000000         0.966199994         0.144099995     
     0.966199994         0.250000000         0.644100010
     0.466199994         0.750000000         0.355899990
     0.533800006         0.250000000         0.644100010
     0.750000000         0.496699989         0.397700012
     0.250000000         0.503300011         0.602299988
     0.750000000         0.003300011         0.397700012
     0.250000000         0.996699989         0.602299988
     0.003300011         0.750000000         0.897700012
     0.996699989         0.250000000         0.102299988
     0.496699989         0.750000000         0.897700012
     0.503300011         0.250000000         0.102299988
     0.750000000         0.250000000         0.996299982
     0.250000000         0.750000000         0.003700000
     0.250000000         0.750000000         0.496300012
     0.750000000         0.250000000         0.503700018
     0.750000000         0.750000000         0.995299995
     0.250000000         0.250000000         0.004700000
     0.750000000         0.750000000         0.495299995
     0.250000000         0.250000000         0.504700005
     0.004200000         0.504199982         0.750000000
     0.995800018         0.495800018         0.250000000
     0.495799989         0.995800018         0.750000000
     0.504199982         0.004199982         0.250000000
     0.995800018         0.004200000         0.250000000
     0.004199982         0.995800018         0.750000000
     0.504199982         0.495799989         0.250000000
     0.495800018         0.504199982         0.750000000
