Strontium dizinc nitride
1.0
        4.0380001068         0.0000000000         0.0000000000
       -2.0190000534         3.4970106730         0.0000000000
        0.0000000000         0.0000000000         6.8359999657
   Sr   Zn    N
    1    2    2
Direct
     0.000000000         0.000000000         0.000000000
     0.333333343         0.666666687         0.631799996
     0.666666627         0.333333313         0.368200004
     0.333333343         0.666666687         0.260600001
     0.666666627         0.333333313         0.739400029
