Strontium Calcium Zinc Nitride
1.0
        3.8568000793         0.0000000000         0.0000000000
        0.0000000000         3.8568000793         0.0000000000
        0.0000000000         0.0000000000        12.9350004196
   Sr   Ca   Zn    N
    2    2    2    4
Direct
     0.000000000         0.000000000         0.340900004
     0.000000000         0.000000000         0.659099996
     0.500000000         0.500000000         0.840900004
     0.500000000         0.500000000         0.159099996
     0.000000000         0.000000000         0.000000000
     0.500000000         0.500000000         0.500000000
     0.000000000         0.000000000         0.144899994
     0.000000000         0.000000000         0.855100036
     0.500000000         0.500000000         0.644899964
     0.500000000         0.500000000         0.355100006
