Sr2 Zn1 P2
1.0
4.309000 0.000000 0.000000
-2.154500 3.731703 0.000000
0.000000 0.000000 7.893000
Sr Zn P
2 1 2
direct
0.000000 0.000000 0.500000 Sr2+
0.000000 0.000000 0.000000 Sr2+
0.666667 0.333333 0.250000 Zn2+
0.333333 0.666667 0.250000 P3-
0.666667 0.333333 0.750000 P3-
