Ca9 P6
1.0
8.255933 0.000000 0.000000
-4.127966 7.149848 0.000000
0.000000 0.000000 6.835509
Ca P
9 6
direct
0.666667 0.333333 0.500000 Ca2+
0.333333 0.666667 0.500000 Ca2+
0.333333 0.666667 0.000000 Ca2+
0.745630 0.745630 0.250000 Ca2+
0.254370 0.000000 0.250000 Ca2+
0.000000 0.254370 0.250000 Ca2+
0.254370 0.254370 0.750000 Ca2+
0.745630 0.000000 0.750000 Ca2+
0.000000 0.745630 0.750000 Ca2+
0.390380 0.390380 0.250000 P3-
0.609620 0.000000 0.250000 P3-
0.000000 0.609620 0.250000 P3-
0.609620 0.609620 0.750000 P3-
0.390380 0.000000 0.750000 P3-
0.000000 0.390380 0.750000 P3-
