Sr72 Zn36 N72                           
   1.00000000000000     
    11.5533079999999995    0.0000000000000000    0.0000000000000000
     0.0000000000000000   11.5533079999999995    0.0000000000000000
    -0.0000010000000000    0.0000000000000000   25.5426430000000018
   Sr   Zn   N 
    72    36    71
Direct
  0.0000576098326945  0.3333333716759768  0.1711511489317985
  0.0000271478570681  0.3333333987827203  0.6710732909898667
  0.9992265354399308  0.6674400978797905  0.1716724058571657
  0.0000221941375500  0.6666444478584523  0.6710329072483177
  0.9992265087570829  0.9992265156463915  0.1716724970297676
  0.0000221916661545  0.0000222094032054  0.6710329989619765
  0.3333329819276543  0.3333333329133694  0.1753437622028784
  0.3333333797432516  0.3333333921542447  0.6710800475566288
  0.3333332545965533  0.6666092818165907  0.1711511797662268
  0.3333333807361569  0.6666395002988565  0.6710732015065872
  0.3333332583795325  0.0000573255723992  0.1711513108729008
  0.3333333843905351  0.0000271619689798  0.6710732916341016
  0.6666095676917365  0.3333333693915961  0.1711513570044261
  0.6666394884631401  0.3333333946618993  0.6710732000556447
  0.6674403274104179  0.6674403190133802  0.1716725076987018
  0.6666444370832991  0.6666444504853146  0.6710328134124168
  0.6674403479848863  0.9992263011035050  0.1716726071280448
  0.6666444312757775  0.0000222125351783  0.6710329052111561
  0.9999906664430327  0.9999906733573312  0.3291973033560396
  0.0002365729337441  0.0002365988628981  0.8289371117392861
  0.9997818170145152  0.3333333839078065  0.3290531375053334
  0.0002029134044150  0.3333334097160900  0.8289375821279208
  0.9999907217213178  0.6666759123541510  0.3291973963922032
  0.0002365776465894  0.6664300684341811  0.8289371997720778
  0.3333333878447533  0.9997818251522688  0.3290531494758753
  0.3333333785691934  0.0002029116213933  0.8289375760851385
  0.3333333884442595  0.3333333494500721  0.3298090913036447
  0.3333334634360980  0.3333334215736059  0.8280469989019323
  0.3333333763555757  0.6668847413966006  0.3290532187070170
  0.3333333780651841  0.6664637414824810  0.8289376293010662
  0.6666759014671442  0.9999907460749355  0.3291974035734171
  0.6664300645581989  0.0002365899035226  0.8289371853264953
  0.6668847205651502  0.3333333720647929  0.3290532404018194
  0.6664637569596934  0.3333334095570137  0.8289376288785206
  0.6666758546905101  0.6666758503165511  0.3291974894975382
  0.6664300725095700  0.6664300861942820  0.8289372772764096
  0.1665059144019523  0.1665059486830103  0.4211606784930311
  0.1677317153532343  0.1677317291201135  0.9211729150181824
  0.1665059302860286  0.5001606577523461  0.4211607769972971
  0.1677316898560477  0.4989350152810204  0.9211729388934131
  0.1667002463312031  0.8333334024673320  0.4212198791818267
  0.1674387523382634  0.8333333868232771  0.9208305454001220
  0.5001606266836589  0.1665059576022827  0.4211607741105325
  0.4989349909685288  0.1677317445150521  0.9211729182178701
  0.5001606139900048  0.5001606462249057  0.4211608721570386
  0.4989350211942281  0.4989350027415824  0.9211729381226448
  0.4999663710394984  0.8333334033047493  0.4212199867772526
  0.4992279363223844  0.8333333869264763  0.9208305331980497
  0.8333333889606251  0.1667002629818484  0.4212198800503018
  0.8333334704882631  0.1674388022171627  0.9208305166397750
  0.8333333930393891  0.4999663820552414  0.4212199908035217
  0.8333334698632200  0.4992279658011114  0.9208305630359916
  0.8333333799295417  0.8333333888031476  0.4212076363519230
  0.8333334754497983  0.8333334180147318  0.9203934817814599
  0.1593721791704539  0.1593713070737550  0.0784650234385964
  0.1666818982817659  0.1666819054008712  0.5790994882010665
  0.1593721630771867  0.5072954872707172  0.0784649528024488
  0.1666819050113588  0.4999847193571441  0.5790993729164740
  0.1673025378291442  0.8333333840247334  0.0788482206016354
  0.1667103593069115  0.8333334087808097  0.5791052273492738
  0.5072967787042799  0.1593709606544493  0.0784653032898461
  0.4999847130616004  0.1666819129283397  0.5790993721564703
  0.5072967963387498  0.5072958299581884  0.0784652095434950
  0.4999847081537823  0.4999847096560970  0.5790992609067800
  0.4993634979280017  0.8333333814610455  0.0788482297397977
  0.4999562540023490  0.8333334076629555  0.5791051222228134
  0.8333337886549330  0.1673029052309687  0.0788482490193516
  0.8333333935796219  0.1667103748252146  0.5791052279133169
  0.8333337896063213  0.4993638515058407  0.0788482107589061
  0.8333333987217983  0.4999562632673360  0.5791051214121055
  0.8333334284548073  0.8333334144202951  0.0789582822237875
  0.8333333937923015  0.8333334036983260  0.5791339556909634
  0.3333332996115743  0.0022487829793576  0.0001924596204290
  0.3333322553211246  0.0002327970086569  0.4999492913765806
  0.3333328704540577  0.3333333437927308  0.0014345729634968
  0.3333321329678256  0.3333321369302666  0.4999482651189808
  0.3333332898157622  0.6644183205598253  0.0001922971948076
  0.3333322479469274  0.6664349009145525  0.4999492972414359
  0.6675025959726568  0.9991643520404736  0.9999604626112344
  0.6666881409037231  0.9999794473915955  0.4999645556384920
  0.6644184085366476  0.3333333698832845  0.0001923187390815
  0.6664348900886594  0.3333322656068987  0.4999493013619087
  0.6675025557730692  0.6675026069518211  0.9999604966951665
  0.6666881384675492  0.6666881406581169  0.4999645468050460
  0.9991641428640534  0.9991642284883966  0.9999604106871871
  0.9999794540104716  0.9999794645348388  0.4999645601913016
  0.0022488513136807  0.3333333786676604  0.0001924460655971
  0.0002327916876226  0.3333322515538981  0.4999492884644994
  0.9991642084584242  0.6675027060795813  0.9999604565700153
  0.9999794674832927  0.6666881199791561  0.4999645592884150
  0.1675070906146630  0.1675070052141123  0.2493490772685121
  0.1665099383691242  0.1665099499135039  0.7499504132124315
  0.1675070749250906  0.4991597352845929  0.2493489368574160
  0.1665098988233069  0.5001576139887689  0.7499503888745238
  0.1662555277871220  0.8333319265665438  0.2499558453335169
  0.1665310983735182  0.8333325789687080  0.7499805296964297
  0.4991598284518304  0.1675069918187546  0.2493490281247475
  0.5001576157833654  0.1665099443902349  0.7499503791403868
  0.4991598387828873  0.4991597446365503  0.2493488522170182
  0.5001577124798970  0.5001576751259904  0.7499503619668957
  0.5004120412087829  0.8333319320978276  0.2499558120595680
  0.5001363462211259  0.8333325739881872  0.7499805241754629
  0.8333320697602247  0.1662556275519051  0.2499558369315267
  0.8333325775729605  0.1665311541192196  0.7499805312453560
  0.8333320761595502  0.5004119229179551  0.2499558494731247
  0.8333325780053684  0.5001363537276760  0.7499805241793922
  0.8333320310660071  0.8333319739326157  0.2499394527367329
  0.8333326141795254  0.8333326156032328  0.7499929588414957
  0.3333324233777546  0.0023497353011166  0.0719829683235886
  0.3333331635236050  0.9999587494915119  0.5712378073500020
  0.3333331283978112  0.3333331544563762  0.5712265267577479
  0.3333324315584676  0.6643170554769995  0.0719828227238537
  0.3333331615502857  0.6667081002899451  0.5712377892074230
  0.6663207386814634  0.0003459867890783  0.0716054139947033
  0.6666913712441200  0.9999754435073882  0.5712429066910971
  0.6643170595091874  0.3333333671670218  0.0719828890448895
  0.6667080682452706  0.3333331923533223  0.5712377935883524
  0.6663207769730093  0.6663209208873866  0.0716054081587600
  0.6666913723865946  0.6666913963480141  0.5712428743753861
  0.0003446081558565  0.0003448117799749  0.0716053459406893
  0.9999754127960330  0.9999754425392027  0.5712429318585990
  0.0023498107955149  0.3333333604426443  0.0719829180450233
  0.9999587184903902  0.3333331911710928  0.5712378014725701
  0.0003445866621803  0.6663220777965932  0.0716053481596788
  0.9999754154011811  0.6666913974135795  0.5712429145868754
  0.3333332034418532  0.0002282855402669  0.4285024616401074
  0.3333334110330881  0.9991868384082210  0.9288192222411737
  0.3333331538961986  0.3333331738434140  0.4284851158729879
  0.3333336344960998  0.3333333889024317  0.9284432190442260
  0.3333332040548243  0.6664385379575322  0.4285024911016677
  0.3333334207007184  0.6674799209559410  0.9288191019350265
  0.6666039622795452  0.0000628688470883  0.4285328930303436
  0.6669023340481246  0.9997644992020014  0.9289207117664802
  0.6664385409089562  0.3333332050619546  0.4285024878627937
  0.6674800215892631  0.3333333813783383  0.9288191294012833
  0.6666039454913673  0.6666039555816710  0.4285329114757630
  0.6669023581343367  0.6669024063675764  0.9289207504922459
  0.0000628662797055  0.0000628748827225  0.4285328797190857
  0.9997645703577192  0.9997646343479616  0.9289206285483971
  0.0002282954275614  0.3333332004650700  0.4285024700705762
  0.9991869044433557  0.3333333708070114  0.9288192033546068
  0.0000628841534223  0.6666039487080440  0.4285328886544519
  0.9997645641668029  0.6669022524506119  0.9289206683841229
  0.1665659705022122  0.1665660423699293  0.3205960773142991
  0.1663878127495195  0.1663878146422704  0.8213013041664965
  0.1665659982850229  0.5001006008705318  0.3205959898072805
  0.1663877986068343  0.5002790111411386  0.8213012837319695
  0.1666899165899736  0.8333331763107878  0.3212377232864512
  0.1665257282538164  0.8333332385235863  0.8213220540880144
  0.5001004861794058  0.1665661076724518  0.3205960967644614
  0.5002790230591714  0.1663878054793813  0.8213012697269590
  0.5001004481818399  0.5001005286448219  0.3205959599334776
  0.5002790474452041  0.5002790318466737  0.8213012665751052
  0.4999768577725021  0.8333331816569256  0.3212376868966729
  0.5001410861834756  0.8333332388997405  0.8213220491948761
  0.8333331405315221  0.1666899593216016  0.3212377076685442
  0.8333331982093597  0.1665257524214709  0.8213220361480893
  0.8333331433269393  0.4999768627956840  0.3212377192651914
  0.8333332010074059  0.5001410944122711  0.8213220467215550
  0.8333331335683170  0.8333331599472800  0.3211355855631197
  0.8333331778554367  0.8333332264807325  0.8213317534202602
  0.1689572094880845  0.1689570146468071  0.1776652083190697
  0.1666301924050018  0.1666302070265004  0.6785686567620104
  0.1689572348931776  0.4977096420550566  0.1776650990072568
  0.1666301969964010  0.5000366178998163  0.6785686271204554
  0.1659893273579058  0.8333331554188206  0.1785046599002769
  0.1666690848067347  0.8333332303160006  0.6786219000041456
  0.4977099221331471  0.1689569587889750  0.1776652173252558
  0.5000366127619742  0.1666302055898541  0.6785686248908931
  0.4977098925416499  0.4977096914610826  0.1776651193162166
  0.5000366161723306  0.5000366253384101  0.6785685924942939
  0.5006775357405360  0.8333331562364350  0.1785046118618752
  0.4999976976735567  0.8333332301541532  0.6786218855654980
  0.8333332302421681  0.1659893290531969  0.1785046367885386
  0.8333332171824139  0.1666691131184521  0.6786219174682273
  0.8333332312364874  0.5006774974497148  0.1785046599532478
  0.8333332186405613  0.4999977199156547  0.6786218843861462
  0.8333331662879715  0.8333331796321772  0.1784249198885064
  0.8333332120651420  0.8333332286007078  0.6786458767247083
 
  0.00000000E+00  0.00000000E+00  0.00000000E+00
  0.00000000E+00  0.00000000E+00  0.00000000E+00
  0.00000000E+00  0.00000000E+00  0.00000000E+00
  0.00000000E+00  0.00000000E+00  0.00000000E+00
  0.00000000E+00  0.00000000E+00  0.00000000E+00
  0.00000000E+00  0.00000000E+00  0.00000000E+00
  0.00000000E+00  0.00000000E+00  0.00000000E+00
  0.00000000E+00  0.00000000E+00  0.00000000E+00
  0.00000000E+00  0.00000000E+00  0.00000000E+00
  0.00000000E+00  0.00000000E+00  0.00000000E+00
  0.00000000E+00  0.00000000E+00  0.00000000E+00
  0.00000000E+00  0.00000000E+00  0.00000000E+00
  0.00000000E+00  0.00000000E+00  0.00000000E+00
  0.00000000E+00  0.00000000E+00  0.00000000E+00
  0.00000000E+00  0.00000000E+00  0.00000000E+00
  0.00000000E+00  0.00000000E+00  0.00000000E+00
  0.00000000E+00  0.00000000E+00  0.00000000E+00
  0.00000000E+00  0.00000000E+00  0.00000000E+00
  0.00000000E+00  0.00000000E+00  0.00000000E+00
  0.00000000E+00  0.00000000E+00  0.00000000E+00
  0.00000000E+00  0.00000000E+00  0.00000000E+00
  0.00000000E+00  0.00000000E+00  0.00000000E+00
  0.00000000E+00  0.00000000E+00  0.00000000E+00
  0.00000000E+00  0.00000000E+00  0.00000000E+00
  0.00000000E+00  0.00000000E+00  0.00000000E+00
  0.00000000E+00  0.00000000E+00  0.00000000E+00
  0.00000000E+00  0.00000000E+00  0.00000000E+00
  0.00000000E+00  0.00000000E+00  0.00000000E+00
  0.00000000E+00  0.00000000E+00  0.00000000E+00
  0.00000000E+00  0.00000000E+00  0.00000000E+00
  0.00000000E+00  0.00000000E+00  0.00000000E+00
  0.00000000E+00  0.00000000E+00  0.00000000E+00
  0.00000000E+00  0.00000000E+00  0.00000000E+00
  0.00000000E+00  0.00000000E+00  0.00000000E+00
  0.00000000E+00  0.00000000E+00  0.00000000E+00
  0.00000000E+00  0.00000000E+00  0.00000000E+00
  0.00000000E+00  0.00000000E+00  0.00000000E+00
  0.00000000E+00  0.00000000E+00  0.00000000E+00
  0.00000000E+00  0.00000000E+00  0.00000000E+00
  0.00000000E+00  0.00000000E+00  0.00000000E+00
  0.00000000E+00  0.00000000E+00  0.00000000E+00
  0.00000000E+00  0.00000000E+00  0.00000000E+00
  0.00000000E+00  0.00000000E+00  0.00000000E+00
  0.00000000E+00  0.00000000E+00  0.00000000E+00
  0.00000000E+00  0.00000000E+00  0.00000000E+00
  0.00000000E+00  0.00000000E+00  0.00000000E+00
  0.00000000E+00  0.00000000E+00  0.00000000E+00
  0.00000000E+00  0.00000000E+00  0.00000000E+00
  0.00000000E+00  0.00000000E+00  0.00000000E+00
  0.00000000E+00  0.00000000E+00  0.00000000E+00
  0.00000000E+00  0.00000000E+00  0.00000000E+00
  0.00000000E+00  0.00000000E+00  0.00000000E+00
  0.00000000E+00  0.00000000E+00  0.00000000E+00
  0.00000000E+00  0.00000000E+00  0.00000000E+00
  0.00000000E+00  0.00000000E+00  0.00000000E+00
  0.00000000E+00  0.00000000E+00  0.00000000E+00
  0.00000000E+00  0.00000000E+00  0.00000000E+00
  0.00000000E+00  0.00000000E+00  0.00000000E+00
  0.00000000E+00  0.00000000E+00  0.00000000E+00
  0.00000000E+00  0.00000000E+00  0.00000000E+00
  0.00000000E+00  0.00000000E+00  0.00000000E+00
  0.00000000E+00  0.00000000E+00  0.00000000E+00
  0.00000000E+00  0.00000000E+00  0.00000000E+00
  0.00000000E+00  0.00000000E+00  0.00000000E+00
  0.00000000E+00  0.00000000E+00  0.00000000E+00
  0.00000000E+00  0.00000000E+00  0.00000000E+00
  0.00000000E+00  0.00000000E+00  0.00000000E+00
  0.00000000E+00  0.00000000E+00  0.00000000E+00
  0.00000000E+00  0.00000000E+00  0.00000000E+00
  0.00000000E+00  0.00000000E+00  0.00000000E+00
  0.00000000E+00  0.00000000E+00  0.00000000E+00
  0.00000000E+00  0.00000000E+00  0.00000000E+00
  0.00000000E+00  0.00000000E+00  0.00000000E+00
  0.00000000E+00  0.00000000E+00  0.00000000E+00
  0.00000000E+00  0.00000000E+00  0.00000000E+00
  0.00000000E+00  0.00000000E+00  0.00000000E+00
  0.00000000E+00  0.00000000E+00  0.00000000E+00
  0.00000000E+00  0.00000000E+00  0.00000000E+00
  0.00000000E+00  0.00000000E+00  0.00000000E+00
  0.00000000E+00  0.00000000E+00  0.00000000E+00
  0.00000000E+00  0.00000000E+00  0.00000000E+00
  0.00000000E+00  0.00000000E+00  0.00000000E+00
  0.00000000E+00  0.00000000E+00  0.00000000E+00
  0.00000000E+00  0.00000000E+00  0.00000000E+00
  0.00000000E+00  0.00000000E+00  0.00000000E+00
  0.00000000E+00  0.00000000E+00  0.00000000E+00
  0.00000000E+00  0.00000000E+00  0.00000000E+00
  0.00000000E+00  0.00000000E+00  0.00000000E+00
  0.00000000E+00  0.00000000E+00  0.00000000E+00
  0.00000000E+00  0.00000000E+00  0.00000000E+00
  0.00000000E+00  0.00000000E+00  0.00000000E+00
  0.00000000E+00  0.00000000E+00  0.00000000E+00
  0.00000000E+00  0.00000000E+00  0.00000000E+00
  0.00000000E+00  0.00000000E+00  0.00000000E+00
  0.00000000E+00  0.00000000E+00  0.00000000E+00
  0.00000000E+00  0.00000000E+00  0.00000000E+00
  0.00000000E+00  0.00000000E+00  0.00000000E+00
  0.00000000E+00  0.00000000E+00  0.00000000E+00
  0.00000000E+00  0.00000000E+00  0.00000000E+00
  0.00000000E+00  0.00000000E+00  0.00000000E+00
  0.00000000E+00  0.00000000E+00  0.00000000E+00
  0.00000000E+00  0.00000000E+00  0.00000000E+00
  0.00000000E+00  0.00000000E+00  0.00000000E+00
  0.00000000E+00  0.00000000E+00  0.00000000E+00
  0.00000000E+00  0.00000000E+00  0.00000000E+00
  0.00000000E+00  0.00000000E+00  0.00000000E+00
  0.00000000E+00  0.00000000E+00  0.00000000E+00
  0.00000000E+00  0.00000000E+00  0.00000000E+00
  0.00000000E+00  0.00000000E+00  0.00000000E+00
  0.00000000E+00  0.00000000E+00  0.00000000E+00
  0.00000000E+00  0.00000000E+00  0.00000000E+00
  0.00000000E+00  0.00000000E+00  0.00000000E+00
  0.00000000E+00  0.00000000E+00  0.00000000E+00
  0.00000000E+00  0.00000000E+00  0.00000000E+00
  0.00000000E+00  0.00000000E+00  0.00000000E+00
  0.00000000E+00  0.00000000E+00  0.00000000E+00
  0.00000000E+00  0.00000000E+00  0.00000000E+00
  0.00000000E+00  0.00000000E+00  0.00000000E+00
  0.00000000E+00  0.00000000E+00  0.00000000E+00
  0.00000000E+00  0.00000000E+00  0.00000000E+00
  0.00000000E+00  0.00000000E+00  0.00000000E+00
  0.00000000E+00  0.00000000E+00  0.00000000E+00
  0.00000000E+00  0.00000000E+00  0.00000000E+00
  0.00000000E+00  0.00000000E+00  0.00000000E+00
  0.00000000E+00  0.00000000E+00  0.00000000E+00
  0.00000000E+00  0.00000000E+00  0.00000000E+00
  0.00000000E+00  0.00000000E+00  0.00000000E+00
  0.00000000E+00  0.00000000E+00  0.00000000E+00
  0.00000000E+00  0.00000000E+00  0.00000000E+00
  0.00000000E+00  0.00000000E+00  0.00000000E+00
  0.00000000E+00  0.00000000E+00  0.00000000E+00
  0.00000000E+00  0.00000000E+00  0.00000000E+00
  0.00000000E+00  0.00000000E+00  0.00000000E+00
  0.00000000E+00  0.00000000E+00  0.00000000E+00
  0.00000000E+00  0.00000000E+00  0.00000000E+00
  0.00000000E+00  0.00000000E+00  0.00000000E+00
  0.00000000E+00  0.00000000E+00  0.00000000E+00
  0.00000000E+00  0.00000000E+00  0.00000000E+00
  0.00000000E+00  0.00000000E+00  0.00000000E+00
  0.00000000E+00  0.00000000E+00  0.00000000E+00
  0.00000000E+00  0.00000000E+00  0.00000000E+00
  0.00000000E+00  0.00000000E+00  0.00000000E+00
  0.00000000E+00  0.00000000E+00  0.00000000E+00
  0.00000000E+00  0.00000000E+00  0.00000000E+00
  0.00000000E+00  0.00000000E+00  0.00000000E+00
  0.00000000E+00  0.00000000E+00  0.00000000E+00
  0.00000000E+00  0.00000000E+00  0.00000000E+00
  0.00000000E+00  0.00000000E+00  0.00000000E+00
  0.00000000E+00  0.00000000E+00  0.00000000E+00
  0.00000000E+00  0.00000000E+00  0.00000000E+00
  0.00000000E+00  0.00000000E+00  0.00000000E+00
  0.00000000E+00  0.00000000E+00  0.00000000E+00
  0.00000000E+00  0.00000000E+00  0.00000000E+00
  0.00000000E+00  0.00000000E+00  0.00000000E+00
  0.00000000E+00  0.00000000E+00  0.00000000E+00
  0.00000000E+00  0.00000000E+00  0.00000000E+00
  0.00000000E+00  0.00000000E+00  0.00000000E+00
  0.00000000E+00  0.00000000E+00  0.00000000E+00
  0.00000000E+00  0.00000000E+00  0.00000000E+00
  0.00000000E+00  0.00000000E+00  0.00000000E+00
  0.00000000E+00  0.00000000E+00  0.00000000E+00
  0.00000000E+00  0.00000000E+00  0.00000000E+00
  0.00000000E+00  0.00000000E+00  0.00000000E+00
  0.00000000E+00  0.00000000E+00  0.00000000E+00
  0.00000000E+00  0.00000000E+00  0.00000000E+00
  0.00000000E+00  0.00000000E+00  0.00000000E+00
  0.00000000E+00  0.00000000E+00  0.00000000E+00
  0.00000000E+00  0.00000000E+00  0.00000000E+00
  0.00000000E+00  0.00000000E+00  0.00000000E+00
  0.00000000E+00  0.00000000E+00  0.00000000E+00
  0.00000000E+00  0.00000000E+00  0.00000000E+00
  0.00000000E+00  0.00000000E+00  0.00000000E+00
  0.00000000E+00  0.00000000E+00  0.00000000E+00
  0.00000000E+00  0.00000000E+00  0.00000000E+00
  0.00000000E+00  0.00000000E+00  0.00000000E+00
  0.00000000E+00  0.00000000E+00  0.00000000E+00
  0.00000000E+00  0.00000000E+00  0.00000000E+00
  0.00000000E+00  0.00000000E+00  0.00000000E+00
  0.00000000E+00  0.00000000E+00  0.00000000E+00
