Ca18 Zn36 P36                           
   1.00000000000000     
    12.0155930000000009   -0.0006380000000000    0.0000940000000000
    -6.0083489999999999   10.4044749999999997   -0.0000060000000000
     0.0001060000000000    0.0000530000000000   13.6020669999999999
   Ca   Zn   P 
    17    36    36
Direct
  0.3328357505873285  0.3328357085776759  0.5000031039713946
  0.3292795780937539  0.3292895059432226  0.0000022012511920
  0.3333349366665956  0.6666761893508948  0.5014220681728148
  0.3333351645398324  0.6666654914631422  0.0012239787657364
  0.3328366549229003  0.9999895009659312  0.4999887774238445
  0.3292766785521977  0.0000519387639102  0.9999647215262897
  0.6666650632985451  0.3333238105734253  0.4985779310652276
  0.6666648772754158  0.3333345440221294  0.9987760284909299
  0.6671642580646377  0.6671642946797860  0.4999968974822195
  0.6707200767144030  0.6707101486302349  0.9999978033365622
  0.6671633547926490  0.0000105102131513  0.5000112208541552
  0.6707238617964535  0.9999481116766660  0.0000352393635055
  0.9999883625686792  0.3328359191959152  0.5000141430863394
  0.0000624558283278  0.3292981129357813  0.0000376517601808
  0.0000116489025359  0.6671640845374540  0.4999858634836443
  0.9999375979836671  0.6707023892914776  0.9999623797859272
  0.0000000021969058  0.9999999987569623  0.5000000010599805
  0.1112121088153515  0.2224314824466234  0.3133269172035824
  0.1089749414266308  0.2180065178812569  0.8211701397831987
  0.1114176653034420  0.5557136285530149  0.3169824239936858
  0.1109767162927469  0.5554819093695187  0.8178989235059362
  0.1112129347132722  0.8887857024920081  0.3133216102401803
  0.1090243612436268  0.8909949521693434  0.8212304470276877
  0.4418316725893234  0.2209433341094496  0.3145148159695665
  0.4415435616711108  0.2207339644075006  0.8146265928262153
  0.4443067394668603  0.5556931488092829  0.3169398732492610
  0.4445161113746110  0.5554809616484349  0.8179013682429570
  0.4442852834108066  0.8885783635466993  0.3169843395409373
  0.4445156215332631  0.8890211266884265  0.8179014941523306
  0.7790810332025870  0.2209139786254113  0.3145009222172348
  0.7792202824177465  0.2207832310196949  0.8146474595662170
  0.7790592772594565  0.5581553516709121  0.3145418732822662
  0.7792757306244837  0.5584561628026492  0.8146250384408020
  0.7775690685098340  0.8887870543507077  0.3133287959604019
  0.7820040505867993  0.8910357038803838  0.8211705433693339
  0.2179959483966130  0.1089640932878453  0.1788294507108290
  0.2224309303280734  0.1112129339912897  0.6866712047042611
  0.2207230462407495  0.4415438831977880  0.1853749804963840
  0.2209407256852458  0.4418446125890867  0.6854581560297461
  0.2207805583687659  0.7792176374122803  0.1853525630788297
  0.2209189347367797  0.7790859835172981  0.6854990809933028
  0.5554843790319595  0.1109788688361917  0.1820985001745683
  0.5557147528467965  0.1114216326688862  0.6830156302774881
  0.5554838955025829  0.4445190477136975  0.1820986303811978
  0.5556932290297425  0.4443068165943203  0.6830601113527592
  0.5584565080446282  0.7792649728434071  0.1853733777817013
  0.5581683206564989  0.7790566577293916  0.6854851616648148
  0.8909758355113340  0.1090052440748437  0.1787695556722255
  0.8887870709070924  0.1112143028732646  0.6866783898268594
  0.8890232788334487  0.4445180882809723  0.1821010808675396
  0.8885823356805389  0.4442864095624870  0.6830176115394551
  0.8910248645174974  0.7819934687276842  0.1788298543844462
  0.8887878873198645  0.7775685183104315  0.6866730847728846
  0.1112608391463610  0.2224958538028829  0.1328948201885254
  0.1109000767724098  0.2217809428217024  0.6324165710689584
  0.1115006993853669  0.5557314272927769  0.1330721285577283
  0.1114140025181314  0.5557020253997536  0.6334738843291561
  0.1112809636610024  0.8887019518536334  0.1328829702816918
  0.1109059984102814  0.8890867718564550  0.6323985091332105
  0.4440345586138363  0.2220215537079184  0.1317668758546162
  0.4451741570903422  0.2225875359822993  0.6302266931289111
  0.4442250119997340  0.5557637531025250  0.1331000877002850
  0.4443029122590403  0.5557115641909220  0.6334614681727615
  0.4442647514516835  0.8884954067898079  0.1330698093561651
  0.4443041366970988  0.8885780551298836  0.6334840713173762
  0.7779783300472047  0.2220218193557670  0.1317582995938125
  0.7774119746465473  0.2225820246369139  0.6302685558532062
  0.7779710797857220  0.5559510184286225  0.1317842477087510
  0.7774045758719623  0.5548141333336218  0.6302211433011990
  0.7774934537007354  0.8887222376026855  0.1328924885968590
  0.7782201416264058  0.8890971441131157  0.6324121833080909
  0.2217798582071424  0.1109028983465805  0.3675878219018145
  0.2225065802224151  0.1112772892017233  0.8671074849452651
  0.2225954129196595  0.4451858776022917  0.3697788573065068
  0.2220290048905795  0.4440489878956271  0.8682157697305897
  0.2225880612638065  0.7774180166843365  0.3697314476263642
  0.2220216135079909  0.7779781150269685  0.8682417027292644
  0.5556958462916342  0.1114219511399384  0.3665159236821864
  0.5557356811988186  0.1115045586843166  0.8669302125743954
  0.5556970818630589  0.4442884208902242  0.3665385304070199
  0.5557745045102038  0.4442357849818919  0.8668999255503351
  0.5548258534762667  0.7774124431597187  0.3697733061047046
  0.5559654600030512  0.7779785304462266  0.8682331010907163
  0.8890939577366410  0.1109131742457450  0.3676014905624356
  0.8887195179103955  0.1112985441656207  0.8671170141655722
  0.8885860162699117  0.4442979481106377  0.3665261230182537
  0.8884992567542653  0.4442690405916707  0.8669278472270605
  0.8890999615500661  0.7782190337196013  0.3675834186723037
  0.8887386828752852  0.7775041594453569  0.8671052010928975
 
  0.00000000E+00  0.00000000E+00  0.00000000E+00
  0.00000000E+00  0.00000000E+00  0.00000000E+00
  0.00000000E+00  0.00000000E+00  0.00000000E+00
  0.00000000E+00  0.00000000E+00  0.00000000E+00
  0.00000000E+00  0.00000000E+00  0.00000000E+00
  0.00000000E+00  0.00000000E+00  0.00000000E+00
  0.00000000E+00  0.00000000E+00  0.00000000E+00
  0.00000000E+00  0.00000000E+00  0.00000000E+00
  0.00000000E+00  0.00000000E+00  0.00000000E+00
  0.00000000E+00  0.00000000E+00  0.00000000E+00
  0.00000000E+00  0.00000000E+00  0.00000000E+00
  0.00000000E+00  0.00000000E+00  0.00000000E+00
  0.00000000E+00  0.00000000E+00  0.00000000E+00
  0.00000000E+00  0.00000000E+00  0.00000000E+00
  0.00000000E+00  0.00000000E+00  0.00000000E+00
  0.00000000E+00  0.00000000E+00  0.00000000E+00
  0.00000000E+00  0.00000000E+00  0.00000000E+00
  0.00000000E+00  0.00000000E+00  0.00000000E+00
  0.00000000E+00  0.00000000E+00  0.00000000E+00
  0.00000000E+00  0.00000000E+00  0.00000000E+00
  0.00000000E+00  0.00000000E+00  0.00000000E+00
  0.00000000E+00  0.00000000E+00  0.00000000E+00
  0.00000000E+00  0.00000000E+00  0.00000000E+00
  0.00000000E+00  0.00000000E+00  0.00000000E+00
  0.00000000E+00  0.00000000E+00  0.00000000E+00
  0.00000000E+00  0.00000000E+00  0.00000000E+00
  0.00000000E+00  0.00000000E+00  0.00000000E+00
  0.00000000E+00  0.00000000E+00  0.00000000E+00
  0.00000000E+00  0.00000000E+00  0.00000000E+00
  0.00000000E+00  0.00000000E+00  0.00000000E+00
  0.00000000E+00  0.00000000E+00  0.00000000E+00
  0.00000000E+00  0.00000000E+00  0.00000000E+00
  0.00000000E+00  0.00000000E+00  0.00000000E+00
  0.00000000E+00  0.00000000E+00  0.00000000E+00
  0.00000000E+00  0.00000000E+00  0.00000000E+00
  0.00000000E+00  0.00000000E+00  0.00000000E+00
  0.00000000E+00  0.00000000E+00  0.00000000E+00
  0.00000000E+00  0.00000000E+00  0.00000000E+00
  0.00000000E+00  0.00000000E+00  0.00000000E+00
  0.00000000E+00  0.00000000E+00  0.00000000E+00
  0.00000000E+00  0.00000000E+00  0.00000000E+00
  0.00000000E+00  0.00000000E+00  0.00000000E+00
  0.00000000E+00  0.00000000E+00  0.00000000E+00
  0.00000000E+00  0.00000000E+00  0.00000000E+00
  0.00000000E+00  0.00000000E+00  0.00000000E+00
  0.00000000E+00  0.00000000E+00  0.00000000E+00
  0.00000000E+00  0.00000000E+00  0.00000000E+00
  0.00000000E+00  0.00000000E+00  0.00000000E+00
  0.00000000E+00  0.00000000E+00  0.00000000E+00
  0.00000000E+00  0.00000000E+00  0.00000000E+00
  0.00000000E+00  0.00000000E+00  0.00000000E+00
  0.00000000E+00  0.00000000E+00  0.00000000E+00
  0.00000000E+00  0.00000000E+00  0.00000000E+00
  0.00000000E+00  0.00000000E+00  0.00000000E+00
  0.00000000E+00  0.00000000E+00  0.00000000E+00
  0.00000000E+00  0.00000000E+00  0.00000000E+00
  0.00000000E+00  0.00000000E+00  0.00000000E+00
  0.00000000E+00  0.00000000E+00  0.00000000E+00
  0.00000000E+00  0.00000000E+00  0.00000000E+00
  0.00000000E+00  0.00000000E+00  0.00000000E+00
  0.00000000E+00  0.00000000E+00  0.00000000E+00
  0.00000000E+00  0.00000000E+00  0.00000000E+00
  0.00000000E+00  0.00000000E+00  0.00000000E+00
  0.00000000E+00  0.00000000E+00  0.00000000E+00
  0.00000000E+00  0.00000000E+00  0.00000000E+00
  0.00000000E+00  0.00000000E+00  0.00000000E+00
  0.00000000E+00  0.00000000E+00  0.00000000E+00
  0.00000000E+00  0.00000000E+00  0.00000000E+00
  0.00000000E+00  0.00000000E+00  0.00000000E+00
  0.00000000E+00  0.00000000E+00  0.00000000E+00
  0.00000000E+00  0.00000000E+00  0.00000000E+00
  0.00000000E+00  0.00000000E+00  0.00000000E+00
  0.00000000E+00  0.00000000E+00  0.00000000E+00
  0.00000000E+00  0.00000000E+00  0.00000000E+00
  0.00000000E+00  0.00000000E+00  0.00000000E+00
  0.00000000E+00  0.00000000E+00  0.00000000E+00
  0.00000000E+00  0.00000000E+00  0.00000000E+00
  0.00000000E+00  0.00000000E+00  0.00000000E+00
  0.00000000E+00  0.00000000E+00  0.00000000E+00
  0.00000000E+00  0.00000000E+00  0.00000000E+00
  0.00000000E+00  0.00000000E+00  0.00000000E+00
  0.00000000E+00  0.00000000E+00  0.00000000E+00
  0.00000000E+00  0.00000000E+00  0.00000000E+00
  0.00000000E+00  0.00000000E+00  0.00000000E+00
  0.00000000E+00  0.00000000E+00  0.00000000E+00
  0.00000000E+00  0.00000000E+00  0.00000000E+00
  0.00000000E+00  0.00000000E+00  0.00000000E+00
  0.00000000E+00  0.00000000E+00  0.00000000E+00
  0.00000000E+00  0.00000000E+00  0.00000000E+00
