Calcium Strontium Zinc Nitride          
   1.00000000000000     
    10.4826279108959941    0.0000001156293104    0.0000075099548820
     0.0000003077056256   10.4827363763008830    0.0000549640408947
     0.0000124721007134    0.0000493372735204   11.3918655608585464
   Sr   Ca   P 
    16     8    16
Direct
  0.7500006725362736  0.5010754138110751  0.7485311943680295
  0.9989249505737606  0.7499986138759970  0.2485793414950504
  0.2500000800212189  0.4989243776058122  0.2514675142175827
  0.7499998586061738  0.9989281468228313  0.7485324885762985
  0.2500002913226859  0.0010717644947311  0.2514681136442266
  0.0011169933885416  0.2500014525191404  0.7515150402311358
  0.5011173655120023  0.7499984260979514  0.2484851017633115
  0.4989241383421005  0.2500015094775752  0.7514206067042603
  0.7499761083593983  0.4982750707545120  0.4200359870807038
  0.2499765355583012  0.5017249339557290  0.5799632871504361
  0.7499763192535955  0.0017231550851717  0.4200365448537461
  0.2499762641115792  0.9982769417443184  0.5799636381499160
  0.0017411137902569  0.7499971643716612  0.9200644215886220
  0.9982974372446901  0.2500030222052382  0.0799876880847654
  0.4982972661311360  0.7499970084514579  0.9200119610438225
  0.5017411641673089  0.2500029230515733  0.0799360969973042
  0.7500023219921594  0.4908112190814749  0.0957585053637206
  0.2500017646275774  0.9908087164615813  0.9042394682001000
  0.2500027080270267  0.5091887616172924  0.9042412977543892
  0.5091842930798601  0.2499994989277446  0.4042124980650617
  0.9908073627784161  0.2499996635632470  0.4042651284460962
  0.7500021491566591  0.0091913161497493  0.0957611803597988
  0.4908071346644675  0.7500005528876119  0.5957343871459104
  0.0091842108821144  0.7500001630470734  0.5957882800955338
  0.7500498954001462  0.2500158905994256  0.9336435331647054
  0.2500500294515661  0.7499842762149966  0.0663562486920615
  0.2499463567793593  0.7500020203528550  0.4336429200133704
  0.7499465904017049  0.2499982521808491  0.5663570693442314
  0.7499955466908985  0.7500038292991219  0.0360922352221016
  0.2499970546446942  0.2499962764324898  0.9639078835375556
  0.7500024605739591  0.7499983400897804  0.5360811522192662
  0.2500014860527418  0.2500012095491905  0.4639188632098946
  0.0355968048475052  0.5356163262782265  0.7500202891079917
  0.9643909145183296  0.4644076929022318  0.2500175140771099
  0.4643915722481726  0.9644091542530291  0.7499823543224619
  0.5355965379162093  0.0356150515896503  0.2499804170517473
  0.9643918320205691  0.0355910270186245  0.2500173190746602
  0.0355960086528866  0.9643848274819189  0.7500202132698538
  0.5355971038929548  0.4643837227088964  0.2499806043610119
  0.4643912907809876  0.5355922759881591  0.7499815589521681
 
  0.00000000E+00  0.00000000E+00  0.00000000E+00
  0.00000000E+00  0.00000000E+00  0.00000000E+00
  0.00000000E+00  0.00000000E+00  0.00000000E+00
  0.00000000E+00  0.00000000E+00  0.00000000E+00
  0.00000000E+00  0.00000000E+00  0.00000000E+00
  0.00000000E+00  0.00000000E+00  0.00000000E+00
  0.00000000E+00  0.00000000E+00  0.00000000E+00
  0.00000000E+00  0.00000000E+00  0.00000000E+00
  0.00000000E+00  0.00000000E+00  0.00000000E+00
  0.00000000E+00  0.00000000E+00  0.00000000E+00
  0.00000000E+00  0.00000000E+00  0.00000000E+00
  0.00000000E+00  0.00000000E+00  0.00000000E+00
  0.00000000E+00  0.00000000E+00  0.00000000E+00
  0.00000000E+00  0.00000000E+00  0.00000000E+00
  0.00000000E+00  0.00000000E+00  0.00000000E+00
  0.00000000E+00  0.00000000E+00  0.00000000E+00
  0.00000000E+00  0.00000000E+00  0.00000000E+00
  0.00000000E+00  0.00000000E+00  0.00000000E+00
  0.00000000E+00  0.00000000E+00  0.00000000E+00
  0.00000000E+00  0.00000000E+00  0.00000000E+00
  0.00000000E+00  0.00000000E+00  0.00000000E+00
  0.00000000E+00  0.00000000E+00  0.00000000E+00
  0.00000000E+00  0.00000000E+00  0.00000000E+00
  0.00000000E+00  0.00000000E+00  0.00000000E+00
  0.00000000E+00  0.00000000E+00  0.00000000E+00
  0.00000000E+00  0.00000000E+00  0.00000000E+00
  0.00000000E+00  0.00000000E+00  0.00000000E+00
  0.00000000E+00  0.00000000E+00  0.00000000E+00
  0.00000000E+00  0.00000000E+00  0.00000000E+00
  0.00000000E+00  0.00000000E+00  0.00000000E+00
  0.00000000E+00  0.00000000E+00  0.00000000E+00
  0.00000000E+00  0.00000000E+00  0.00000000E+00
  0.00000000E+00  0.00000000E+00  0.00000000E+00
  0.00000000E+00  0.00000000E+00  0.00000000E+00
  0.00000000E+00  0.00000000E+00  0.00000000E+00
  0.00000000E+00  0.00000000E+00  0.00000000E+00
  0.00000000E+00  0.00000000E+00  0.00000000E+00
  0.00000000E+00  0.00000000E+00  0.00000000E+00
  0.00000000E+00  0.00000000E+00  0.00000000E+00
  0.00000000E+00  0.00000000E+00  0.00000000E+00
