Ca18 Zn35 P36                           
   1.00000000000000     
    12.0155930000000009   -0.0006380000000000    0.0000940000000000
    -6.0083489999999999   10.4044749999999997   -0.0000060000000000
     0.0001060000000000    0.0000530000000000   13.6020669999999999
   Ca   Zn   P 
    18    35    36
Direct
  0.3291396024998221  0.3312559154689865  0.4955332339713152
  0.3318474105049702  0.3325939660041897  0.0010961841759567
  0.3331283109676519  0.6662581570048545  0.4987765452884005
  0.3328145887113507  0.6656635558620607  0.0013715087242403
  0.3331219178945872  0.0002113342991805  0.4987819577117563
  0.3328276706949680  0.0005090171501934  0.0013743359743472
  0.6667016828170844  0.3334107567546596  0.4988391748490741
  0.6664819594257594  0.3329847264473926  0.0012430057084458
  0.6666967764841516  0.6666390697115716  0.4988464684968008
  0.6664899251480776  0.6668451355003953  0.0012330869618538
  0.6670765942445200  0.0002059988132714  0.4987764558621848
  0.6676682818556117  0.0005196437328578  0.0013709468113561
  0.0021001651237214  0.3312352309280442  0.4955135035953120
  0.0007285386033260  0.3326037819889152  0.0011030051505330
  0.9999249784898865  0.6666343589909047  0.4988396050139769
  0.0003492293502987  0.6668522154519110  0.0012426780726003
  0.0020825504164677  0.0042026386967464  0.4955230558532691
  0.0007402723656043  0.0014887399785977  0.0010957609078801
  0.1111107665711160  0.2222219958537650  0.8172822753285089
  0.1151046507220244  0.5560013783830371  0.3173776076441470
  0.1111477631961506  0.5555589694258174  0.8164718612976003
  0.1152601160374260  0.8925191800866230  0.3173718841491748
  0.1111412889274348  0.8888954755522960  0.8164774295617363
  0.4407714755813643  0.2180470192778827  0.3174119449536690
  0.4444328128271309  0.2221906606647934  0.8164781065284927
  0.4412095291578453  0.5560302926551657  0.3172211020913096
  0.4444287908886508  0.5555987772853825  0.8164698909171051
  0.4444441785171733  0.8888895577196152  0.3170147237375431
  0.4444481860776861  0.8888805619111864  0.8166760781858642
  0.7773249261751189  0.2181923515004200  0.3174083685467366
  0.7777734961198490  0.2221845813537016  0.8164727544935104
  0.7777834237574410  0.5555442577747769  0.3166400007407049
  0.7777772048159548  0.5555550132901885  0.8170279134686993
  0.7772857789635808  0.8921221820930469  0.3172213355875613
  0.7777305343757277  0.8888997792298454  0.8164701673585242
  0.2166280239518485  0.1167051688200829  0.1915066878131384
  0.2222114225020633  0.1111234235057310  0.6823629328373855
  0.2166516246678398  0.4333142541366044  0.1915359884863079
  0.2222217003161191  0.4444376331958892  0.6823646832455594
  0.2214897203733912  0.7774155780714409  0.1829250065598913
  0.2220917405015399  0.7777272558976094  0.6825987572018875
  0.5559341939418729  0.1118723381642042  0.1829196037194620
  0.5556080292372769  0.1112406822939747  0.6825991218637952
  0.5552052839255097  0.4442688848733880  0.1829506249000019
  0.5554004571996245  0.4443776657150309  0.6828536458498817
  0.5558675528984622  0.7774678858010589  0.1829257301740981
  0.5556317169320693  0.7777066578637459  0.6825941268890716
  0.9000259535535022  0.1166846893296309  0.1915316652697925
  0.8889005741661933  0.1111147014655529  0.6823646285326888
  0.8890481384692919  0.4442850918095260  0.1829232654931516
  0.8889434724537821  0.4443928331668729  0.6828151870129133
  0.8890667366306886  0.7781341554180941  0.1829482810941769
  0.8889626325356232  0.7779434920008867  0.6828574711264537
  0.1111161789127095  0.2222154656322317  0.1272559536331670
  0.1111044722937820  0.2222277138868307  0.6328506109154617
  0.1117745085488764  0.5548072495576264  0.1331331335186476
  0.1107862420307413  0.5552622104996772  0.6316267172722263
  0.1117923161966985  0.8903262649400929  0.1331317588614169
  0.1108001452903409  0.8888714905852879  0.6316222632445800
  0.4430099278125965  0.2215446614684282  0.1331378784724322
  0.4444617353729967  0.2225326064586142  0.6316224692605132
  0.4430301591388357  0.5548211014042366  0.1330945127866698
  0.4444630749079579  0.5552647923831557  0.6316321400868787
  0.4444342232953176  0.8889009677475244  0.1326368498585850
  0.4444368535691297  0.8888967377771735  0.6320025971199073
  0.7785267398847822  0.2215577862199609  0.1331376566019316
  0.7780690561841794  0.2225451434028614  0.6316263828487791
  0.7777697244972046  0.5555669814075301  0.1320975685326289
  0.7777712424374599  0.5555631964449503  0.6321748098329323
  0.7785125410720397  0.8903077471992660  0.1330946873236698
  0.7780668403889379  0.8888702897298515  0.6316314557840741
  0.2230159997280268  0.1103023492498423  0.3682723658921887
  0.2224170222068835  0.1109208023211252  0.8668405845294984
  0.2231749076446832  0.4461976056240360  0.3682282391096265
  0.2224141076501667  0.4448544277811664  0.8668455088687637
  0.2224633839996670  0.7779056392690080  0.3671997870626882
  0.2222334940622304  0.7778004202622810  0.8676083804918449
  0.5554273822330558  0.1108736939461537  0.3672003179060468
  0.5555369826055241  0.1111035871262089  0.8676075652924453
  0.5550271267507725  0.4441381409612219  0.3663897388324386
  0.5555547189756851  0.4444482962849889  0.8677939946373883
  0.5554320539032389  0.7778996080358667  0.3671953301245736
  0.5555420178517423  0.7777956748104771  0.8676081977059056
  0.8871375162637705  0.1101563294712662  0.3682320491893378
  0.8884832153834594  0.1109237054402641  0.8668457874764286
  0.8891593168700567  0.4441721483394900  0.3663850441095846
  0.8888795750038412  0.4444567441567102  0.8677904106796461
  0.8891934076326606  0.7783060599916922  0.3663879995789259
  0.8888884368337386  0.7777826918113533  0.8677948867683654
 
  0.00000000E+00  0.00000000E+00  0.00000000E+00
  0.00000000E+00  0.00000000E+00  0.00000000E+00
  0.00000000E+00  0.00000000E+00  0.00000000E+00
  0.00000000E+00  0.00000000E+00  0.00000000E+00
  0.00000000E+00  0.00000000E+00  0.00000000E+00
  0.00000000E+00  0.00000000E+00  0.00000000E+00
  0.00000000E+00  0.00000000E+00  0.00000000E+00
  0.00000000E+00  0.00000000E+00  0.00000000E+00
  0.00000000E+00  0.00000000E+00  0.00000000E+00
  0.00000000E+00  0.00000000E+00  0.00000000E+00
  0.00000000E+00  0.00000000E+00  0.00000000E+00
  0.00000000E+00  0.00000000E+00  0.00000000E+00
  0.00000000E+00  0.00000000E+00  0.00000000E+00
  0.00000000E+00  0.00000000E+00  0.00000000E+00
  0.00000000E+00  0.00000000E+00  0.00000000E+00
  0.00000000E+00  0.00000000E+00  0.00000000E+00
  0.00000000E+00  0.00000000E+00  0.00000000E+00
  0.00000000E+00  0.00000000E+00  0.00000000E+00
  0.00000000E+00  0.00000000E+00  0.00000000E+00
  0.00000000E+00  0.00000000E+00  0.00000000E+00
  0.00000000E+00  0.00000000E+00  0.00000000E+00
  0.00000000E+00  0.00000000E+00  0.00000000E+00
  0.00000000E+00  0.00000000E+00  0.00000000E+00
  0.00000000E+00  0.00000000E+00  0.00000000E+00
  0.00000000E+00  0.00000000E+00  0.00000000E+00
  0.00000000E+00  0.00000000E+00  0.00000000E+00
  0.00000000E+00  0.00000000E+00  0.00000000E+00
  0.00000000E+00  0.00000000E+00  0.00000000E+00
  0.00000000E+00  0.00000000E+00  0.00000000E+00
  0.00000000E+00  0.00000000E+00  0.00000000E+00
  0.00000000E+00  0.00000000E+00  0.00000000E+00
  0.00000000E+00  0.00000000E+00  0.00000000E+00
  0.00000000E+00  0.00000000E+00  0.00000000E+00
  0.00000000E+00  0.00000000E+00  0.00000000E+00
  0.00000000E+00  0.00000000E+00  0.00000000E+00
  0.00000000E+00  0.00000000E+00  0.00000000E+00
  0.00000000E+00  0.00000000E+00  0.00000000E+00
  0.00000000E+00  0.00000000E+00  0.00000000E+00
  0.00000000E+00  0.00000000E+00  0.00000000E+00
  0.00000000E+00  0.00000000E+00  0.00000000E+00
  0.00000000E+00  0.00000000E+00  0.00000000E+00
  0.00000000E+00  0.00000000E+00  0.00000000E+00
  0.00000000E+00  0.00000000E+00  0.00000000E+00
  0.00000000E+00  0.00000000E+00  0.00000000E+00
  0.00000000E+00  0.00000000E+00  0.00000000E+00
  0.00000000E+00  0.00000000E+00  0.00000000E+00
  0.00000000E+00  0.00000000E+00  0.00000000E+00
  0.00000000E+00  0.00000000E+00  0.00000000E+00
  0.00000000E+00  0.00000000E+00  0.00000000E+00
  0.00000000E+00  0.00000000E+00  0.00000000E+00
  0.00000000E+00  0.00000000E+00  0.00000000E+00
  0.00000000E+00  0.00000000E+00  0.00000000E+00
  0.00000000E+00  0.00000000E+00  0.00000000E+00
  0.00000000E+00  0.00000000E+00  0.00000000E+00
  0.00000000E+00  0.00000000E+00  0.00000000E+00
  0.00000000E+00  0.00000000E+00  0.00000000E+00
  0.00000000E+00  0.00000000E+00  0.00000000E+00
  0.00000000E+00  0.00000000E+00  0.00000000E+00
  0.00000000E+00  0.00000000E+00  0.00000000E+00
  0.00000000E+00  0.00000000E+00  0.00000000E+00
  0.00000000E+00  0.00000000E+00  0.00000000E+00
  0.00000000E+00  0.00000000E+00  0.00000000E+00
  0.00000000E+00  0.00000000E+00  0.00000000E+00
  0.00000000E+00  0.00000000E+00  0.00000000E+00
  0.00000000E+00  0.00000000E+00  0.00000000E+00
  0.00000000E+00  0.00000000E+00  0.00000000E+00
  0.00000000E+00  0.00000000E+00  0.00000000E+00
  0.00000000E+00  0.00000000E+00  0.00000000E+00
  0.00000000E+00  0.00000000E+00  0.00000000E+00
  0.00000000E+00  0.00000000E+00  0.00000000E+00
  0.00000000E+00  0.00000000E+00  0.00000000E+00
  0.00000000E+00  0.00000000E+00  0.00000000E+00
  0.00000000E+00  0.00000000E+00  0.00000000E+00
  0.00000000E+00  0.00000000E+00  0.00000000E+00
  0.00000000E+00  0.00000000E+00  0.00000000E+00
  0.00000000E+00  0.00000000E+00  0.00000000E+00
  0.00000000E+00  0.00000000E+00  0.00000000E+00
  0.00000000E+00  0.00000000E+00  0.00000000E+00
  0.00000000E+00  0.00000000E+00  0.00000000E+00
  0.00000000E+00  0.00000000E+00  0.00000000E+00
  0.00000000E+00  0.00000000E+00  0.00000000E+00
  0.00000000E+00  0.00000000E+00  0.00000000E+00
  0.00000000E+00  0.00000000E+00  0.00000000E+00
  0.00000000E+00  0.00000000E+00  0.00000000E+00
  0.00000000E+00  0.00000000E+00  0.00000000E+00
  0.00000000E+00  0.00000000E+00  0.00000000E+00
  0.00000000E+00  0.00000000E+00  0.00000000E+00
  0.00000000E+00  0.00000000E+00  0.00000000E+00
  0.00000000E+00  0.00000000E+00  0.00000000E+00
