Ca18 Zn35 P36
1.0
12.015593 -0.000638 0.000094
-6.008349 10.404475 -0.000006
0.000106 0.000053 13.602067
Ca Zn P
18 35 36
direct
0.333333 0.333333 0.500000 Ca
0.333333 0.333333 1.000000 Ca
0.333333 0.666667 0.500000 Ca
0.333333 0.666667 1.000000 Ca
0.333333 1.000000 0.500000 Ca
0.333333 1.000000 1.000000 Ca
0.666667 0.333333 0.500000 Ca
0.666667 0.333333 1.000000 Ca
0.666667 0.666667 0.500000 Ca
0.666667 0.666667 1.000000 Ca
0.666667 1.000000 0.500000 Ca
0.666667 1.000000 1.000000 Ca
1.000000 0.333333 0.500000 Ca
1.000000 0.333333 1.000000 Ca
1.000000 0.666667 0.500000 Ca
1.000000 0.666667 1.000000 Ca
1.000000 1.000000 0.500000 Ca
1.000000 1.000000 1.000000 Ca
0.111109 0.222221 0.816633 Zn
0.111109 0.555555 0.316633 Zn
0.111109 0.555555 0.816633 Zn
0.111109 0.888888 0.316633 Zn
0.111109 0.888888 0.816633 Zn
0.444443 0.222221 0.316633 Zn
0.444443 0.222221 0.816633 Zn
0.444443 0.555555 0.316633 Zn
0.444443 0.555555 0.816633 Zn
0.444443 0.888888 0.316633 Zn
0.444443 0.888888 0.816633 Zn
0.777776 0.222221 0.316633 Zn
0.777776 0.222221 0.816633 Zn
0.777776 0.555555 0.316633 Zn
0.777776 0.555555 0.816633 Zn
0.777776 0.888888 0.316633 Zn
0.777776 0.888888 0.816633 Zn
0.222224 0.111112 0.183367 Zn
0.222224 0.111112 0.683367 Zn
0.222224 0.444445 0.183367 Zn
0.222224 0.444445 0.683367 Zn
0.222224 0.777779 0.183367 Zn
0.222224 0.777779 0.683367 Zn
0.555557 0.111112 0.183367 Zn
0.555557 0.111112 0.683367 Zn
0.555557 0.444445 0.183367 Zn
0.555557 0.444445 0.683367 Zn
0.555557 0.777779 0.183367 Zn
0.555557 0.777779 0.683367 Zn
0.888891 0.111112 0.183367 Zn
0.888891 0.111112 0.683367 Zn
0.888891 0.444445 0.183367 Zn
0.888891 0.444445 0.683367 Zn
0.888891 0.777779 0.183367 Zn
0.888891 0.777779 0.683367 Zn
0.111112 0.222223 0.132357 P
0.111112 0.222223 0.632357 P
0.111112 0.555556 0.132357 P
0.111112 0.555556 0.632357 P
0.111112 0.888889 0.132357 P
0.111112 0.888889 0.632357 P
0.444445 0.222223 0.132357 P
0.444445 0.222223 0.632357 P
0.444445 0.555556 0.132357 P
0.444445 0.555556 0.632357 P
0.444445 0.888889 0.132357 P
0.444445 0.888889 0.632357 P
0.777778 0.222223 0.132357 P
0.777778 0.222223 0.632357 P
0.777778 0.555556 0.132357 P
0.777778 0.555556 0.632357 P
0.777778 0.888889 0.132357 P
0.777778 0.888889 0.632357 P
0.222222 0.111111 0.367643 P
0.222222 0.111111 0.867643 P
0.222222 0.444444 0.367643 P
0.222222 0.444444 0.867643 P
0.222222 0.777777 0.367643 P
0.222222 0.777777 0.867643 P
0.555555 0.111111 0.367643 P
0.555555 0.111111 0.867643 P
0.555555 0.444444 0.367643 P
0.555555 0.444444 0.867643 P
0.555555 0.777777 0.367643 P
0.555555 0.777777 0.867643 P
0.888888 0.111111 0.367643 P
0.888888 0.111111 0.867643 P
0.888888 0.444444 0.367643 P
0.888888 0.444444 0.867643 P
0.888888 0.777777 0.367643 P
0.888888 0.777777 0.867643 P
