Calcium Strontium Phosphide             
   1.00000000000000     
     8.4638281870380911    0.0000000229482962   -0.0000000649968717
     0.0000000115272623    8.4638262687121646   -0.0000000085898058
    -0.0000000252991301    0.0000000122716492   12.0569690448004039
   Sr   Ca   N 
    16     8    16
Direct
  0.7499985197959202  0.5470420339116208  0.1220527310007000
  0.2499985177412883  0.0470420508859720  0.8779472837518939
  0.2499985271622277  0.4529579559513155  0.8779472733221333
  0.4529637244114539  0.2499999836384534  0.3779528178717110
  0.0470476874156901  0.2499999893888517  0.3779411261570133
  0.7499985192538049  0.9529579620515674  0.1220527184396797
  0.5470476921864443  0.7500000156369394  0.6220588570302722
  0.9529637406004786  0.7499999934325675  0.6220471758420065
  0.7500056125635234  0.4702352554336030  0.8531377048173771
  0.0297587347306692  0.7500000166753308  0.3531322692707251
  0.2500056089050935  0.5297647484168214  0.1468622858785449
  0.7500056215456721  0.0297647490982145  0.8531377140547326
  0.2500056084832135  0.9702352653741125  0.1468622868312385
  0.9702288253343667  0.2499999880666606  0.6468560293472151
  0.4702288028327333  0.7500000095521976  0.3531439749325826
  0.5297587405997286  0.2499999872676188  0.6468677253125649
  0.7500017608266452  0.4857222120897095  0.3853249116069010
  0.2500017631715316  0.5142777692701499  0.6146750832183682
  0.7500017513828535  0.0142777747835850  0.3853249037792834
  0.2500017578797715  0.9857222106550599  0.6146750865490369
  0.0142745196018926  0.7499999706286283  0.8853210744708526
  0.9857178155118894  0.2500000195691160  0.1146706046440575
  0.4857178071257295  0.7499999961567224  0.8853294053511577
  0.5142745244817049  0.2500000159739356  0.1146789214910243
  0.7500100518968063  0.2500000030312169  0.0112850971938734
  0.2500100486672976  0.7500000037391511  0.9887149053018572
  0.2499773463062390  0.7499999972871397  0.5112850681085287
  0.7499773484242394  0.2499999970489080  0.4887149309797441
  0.7500002280352431  0.7500000037962412  0.9551701987865455
  0.2500002263699960  0.2500000053160709  0.0448297971843372
  0.7499988248587154  0.7499999999341915  0.4551703515667053
  0.2499988256552218  0.2499999990607130  0.5448296482440480
  0.0181063877094511  0.5181022232113136  0.7500003532540356
  0.9818988403589026  0.4818942369900391  0.2500002395739153
  0.4818988364455273  0.9818942307772436  0.7499997633585768
  0.5181063859203786  0.0181022276279253  0.2499996372186767
  0.9818988438349306  0.0181057652285701  0.2500002344563251
  0.0181063868639722  0.9818977745306071  0.7500003568935113
  0.5181063883943856  0.4818977742136842  0.2499996406204111
  0.4818988357143483  0.5181057732982194  0.7499997592878359
 
  0.00000000E+00  0.00000000E+00  0.00000000E+00
  0.00000000E+00  0.00000000E+00  0.00000000E+00
  0.00000000E+00  0.00000000E+00  0.00000000E+00
  0.00000000E+00  0.00000000E+00  0.00000000E+00
  0.00000000E+00  0.00000000E+00  0.00000000E+00
  0.00000000E+00  0.00000000E+00  0.00000000E+00
  0.00000000E+00  0.00000000E+00  0.00000000E+00
  0.00000000E+00  0.00000000E+00  0.00000000E+00
  0.00000000E+00  0.00000000E+00  0.00000000E+00
  0.00000000E+00  0.00000000E+00  0.00000000E+00
  0.00000000E+00  0.00000000E+00  0.00000000E+00
  0.00000000E+00  0.00000000E+00  0.00000000E+00
  0.00000000E+00  0.00000000E+00  0.00000000E+00
  0.00000000E+00  0.00000000E+00  0.00000000E+00
  0.00000000E+00  0.00000000E+00  0.00000000E+00
  0.00000000E+00  0.00000000E+00  0.00000000E+00
  0.00000000E+00  0.00000000E+00  0.00000000E+00
  0.00000000E+00  0.00000000E+00  0.00000000E+00
  0.00000000E+00  0.00000000E+00  0.00000000E+00
  0.00000000E+00  0.00000000E+00  0.00000000E+00
  0.00000000E+00  0.00000000E+00  0.00000000E+00
  0.00000000E+00  0.00000000E+00  0.00000000E+00
  0.00000000E+00  0.00000000E+00  0.00000000E+00
  0.00000000E+00  0.00000000E+00  0.00000000E+00
  0.00000000E+00  0.00000000E+00  0.00000000E+00
  0.00000000E+00  0.00000000E+00  0.00000000E+00
  0.00000000E+00  0.00000000E+00  0.00000000E+00
  0.00000000E+00  0.00000000E+00  0.00000000E+00
  0.00000000E+00  0.00000000E+00  0.00000000E+00
  0.00000000E+00  0.00000000E+00  0.00000000E+00
  0.00000000E+00  0.00000000E+00  0.00000000E+00
  0.00000000E+00  0.00000000E+00  0.00000000E+00
  0.00000000E+00  0.00000000E+00  0.00000000E+00
  0.00000000E+00  0.00000000E+00  0.00000000E+00
  0.00000000E+00  0.00000000E+00  0.00000000E+00
  0.00000000E+00  0.00000000E+00  0.00000000E+00
  0.00000000E+00  0.00000000E+00  0.00000000E+00
  0.00000000E+00  0.00000000E+00  0.00000000E+00
  0.00000000E+00  0.00000000E+00  0.00000000E+00
  0.00000000E+00  0.00000000E+00  0.00000000E+00
