Strontium Calcium Zinc Nitride          
   1.00000000000000     
     3.7268772615847197   -0.0000000077137957   -0.0000000072486289
    -0.0000000078289774    3.7268772552254807    0.0000000152190254
    -0.0000000247203697    0.0000000419281166   12.6152409386781095
   Sr   Ca   Zn   N 
     2     2     2     4
Direct
  0.9999994394336860  0.0000000031973349  0.3413081612135769
  0.9999994471541553  0.9999999942780332  0.6586918403641895
  0.4999999945243088  0.4999999849690642  0.8380164541377310
  0.4999999840880686  0.5000000190237722  0.1619835521817732
  0.9999999648264408  0.9999999998439465 -0.0000000051320375
  0.5000001151736512  0.5000000007485217  0.4999999987706818
  0.9999999189646817  0.0000000027287564  0.1441223083444135
  0.9999999216500379  0.9999999952267415  0.8558777110579774
  0.5000006093108915  0.4999999898637809  0.6445909792043504
  0.5000006048740780  0.5000000101200416  0.3554089998573440
 
  0.00000000E+00  0.00000000E+00  0.00000000E+00
  0.00000000E+00  0.00000000E+00  0.00000000E+00
  0.00000000E+00  0.00000000E+00  0.00000000E+00
  0.00000000E+00  0.00000000E+00  0.00000000E+00
  0.00000000E+00  0.00000000E+00  0.00000000E+00
  0.00000000E+00  0.00000000E+00  0.00000000E+00
  0.00000000E+00  0.00000000E+00  0.00000000E+00
  0.00000000E+00  0.00000000E+00  0.00000000E+00
  0.00000000E+00  0.00000000E+00  0.00000000E+00
  0.00000000E+00  0.00000000E+00  0.00000000E+00
