generated by phonopy                    
   1.00000000000000     
     3.5275375997040657   -0.0000684788684916   -0.0000044019431900
    -1.7638281039134569    3.0549018048169971    0.0000041737323491
    -0.0000071013790410    0.0000037631963303    6.2240087023213677
   Sr   Zn   N 
     1     2     2
Direct
  0.9999996503327111  0.9999999637031678  0.0000002355286668
  0.3333348939480487  0.6666651872394098  0.6277126411455569
  0.6666652807939926  0.3333348330204515  0.3722870896593378
  0.3333360974614479  0.6666640294048776  0.2785483336909493
  0.6666640174637877  0.3333359866320933  0.7230584115336711
 
  0.00000000E+00  0.00000000E+00  0.00000000E+00
  0.00000000E+00  0.00000000E+00  0.00000000E+00
  0.00000000E+00  0.00000000E+00  0.00000000E+00
  0.00000000E+00  0.00000000E+00  0.00000000E+00
  0.00000000E+00  0.00000000E+00  0.00000000E+00
