Dicalcium zinc phosphide                
   1.00000000000000     
     4.1626265405678424    0.0000001120124436   -0.0000000024599522
     0.0000001117124027    4.1626265154342539    0.0000000653865971
    -0.0000000117398799    0.0000002374673452   14.9674051447398142
   Ca   Zn   P 
     4     2     4
Direct
  0.9999998926969150 -0.0000000093377313  0.3387099531943368
  0.9999998794495555  0.9999999923339011  0.6612900457693200
  0.4999998746570701  0.5000000014841351  0.8387099369077987
  0.4999998676356276  0.5000000072225481  0.1612900596049600
  0.0000004470982903  0.0000000055301238  0.0000000055407727
  0.5000004442265562  0.4999999989928378  0.4999999954912682
  0.9999998941039278  0.0000000084515127  0.1456625333823051
  0.9999998977741467  0.9999999957127451  0.8543374639237556
  0.4999999027311011  0.4999999972102568  0.6456625223183560
  0.4999998996268100  0.5000000023996708  0.3543374838671339
 
  0.00000000E+00  0.00000000E+00  0.00000000E+00
  0.00000000E+00  0.00000000E+00  0.00000000E+00
  0.00000000E+00  0.00000000E+00  0.00000000E+00
  0.00000000E+00  0.00000000E+00  0.00000000E+00
  0.00000000E+00  0.00000000E+00  0.00000000E+00
  0.00000000E+00  0.00000000E+00  0.00000000E+00
  0.00000000E+00  0.00000000E+00  0.00000000E+00
  0.00000000E+00  0.00000000E+00  0.00000000E+00
  0.00000000E+00  0.00000000E+00  0.00000000E+00
  0.00000000E+00  0.00000000E+00  0.00000000E+00
