Dicalcium zinc phosphide
1.0
        3.5834999084         0.0000000000         0.0000000000
        0.0000000000         3.5834999084         0.0000000000
        0.0000000000         0.0000000000        12.6583003998
   Ca   Zn    P
    4    2    4
Direct
     0.000000000         0.000000000         0.335999995
     0.000000000         0.000000000         0.664000034
     0.500000000         0.500000000         0.835999966
     0.500000000         0.500000000         0.164000005
     0.000000000         0.000000000         0.000000000
     0.500000000         0.500000000         0.500000000
     0.000000000         0.000000000         0.145500004
     0.000000000         0.000000000         0.854499996
     0.500000000         0.500000000         0.645500004
     0.500000000         0.500000000         0.354499996
