Calcium dizinc nitride                  
   1.00000000000000     
     3.4399321362740176   -0.0000009027045575    0.0000049989654327
    -1.7199668480687165    2.9790680985947380   -0.0000049979812282
     0.0000087114399749   -0.0000050318528131    5.9645575011154186
   Ca   Zn   N 
     1     2     2
Direct
  0.9999999785685532  0.9999999918316647  0.9999999788439595
  0.3333353970762403  0.6666645843948871  0.6368233028646202
  0.6666645975518293  0.3333354306641851  0.3631766891565675
  0.3333359083470882  0.6666640792512482  0.2616264962976800
  0.6666640584562842  0.3333359138580150  0.7383735628371753
 
  0.00000000E+00  0.00000000E+00  0.00000000E+00
  0.00000000E+00  0.00000000E+00  0.00000000E+00
  0.00000000E+00  0.00000000E+00  0.00000000E+00
  0.00000000E+00  0.00000000E+00  0.00000000E+00
  0.00000000E+00  0.00000000E+00  0.00000000E+00
