Ca18 Zn36 P35                           
   1.00000000000000     
    12.0155930000000009   -0.0006380000000000    0.0000940000000000
    -6.0083489999999999   10.4044749999999997   -0.0000060000000000
     0.0001060000000000    0.0000530000000000   13.6020669999999999
   Ca   Zn   P 
    18    36    35
Direct
  0.3321868105237940  0.3327490252500809  0.4985453938044770
  0.3366890205899296  0.3350050866599332  0.0006799596831115
  0.3331272630510611  0.6662531021483105  0.4992335442203668
  0.3328776929811994  0.6657538204663780  0.0012981817302204
  0.3331290945811958  0.0002045991881445  0.4992127437215643
  0.3328891620448999  0.0004427053979938  0.0012786513770067
  0.6666882683795023  0.3333708127648265  0.5002049152454617
  0.6665903434569245  0.3331803076900286  0.0010379435628991
  0.6666850214781803  0.6666491168591477  0.5001965071296084
  0.6665983382998704  0.6667337928233863  0.0010233522397129
  0.6670811336288480  0.0002068174452816  0.4992298960224986
  0.6675760220145150  0.0004533225591032  0.0012952285264589
  0.0005674846498778  0.3327690760444781  0.4985623196721463
  0.9982404546110502  0.3350899914579770  0.0005465006904117
  0.9999633337563765  0.6666459611388049  0.5002058372699594
  0.0001469612735150  0.6667398314915616  0.0010318775508793
  0.0005880609713671  0.0011520703204582  0.4985410353062250
  0.9983548386769172  0.9967031660207795  0.0007476225269656
  0.1111112094669053  0.2222148734460632  0.2893095248736728
  0.1111130071221353  0.2222169876356119  0.8174410107856218
  0.1114299293017709  0.5554553371723898  0.3167586322874030
  0.1111632428715978  0.5555305662274250  0.8177728836828635
  0.1114373319695758  0.8893007567673266  0.3167593577154761
  0.1111593314796337  0.8889549534570591  0.8177777972498390
  0.4440291184188752  0.2218917483990381  0.3167525070672923
  0.4443755268909015  0.2221696584265089  0.8177744055778717
  0.4440209101033048  0.5554313824880097  0.3167614628263991
  0.4443739223468910  0.5555268529400124  0.8177772211072352
  0.4444457413935652  0.8888857883747363  0.3174591478387683
  0.4444461754822910  0.8888856206348805  0.8173399141873077
  0.7778727212234244  0.2218989639732243  0.3167596010247138
  0.7777996821567115  0.2221665393122905  0.8177727477292578
  0.7777796664690300  0.5555501870454478  0.3178412003073134
  0.7777758829355079  0.5555586881806036  0.8178075596561101
  0.7778963263093814  0.8893078150379736  0.3167661318108941
  0.7778049067921060  0.8889573916954632  0.8177795407636310
  0.2180121743381633  0.1153147623209350  0.1822435997004845
  0.2221788568870835  0.1111579366656130  0.6834239749924080
  0.2180001248667125  0.4360273021479912  0.1822956183987827
  0.2221736422042397  0.4443570325039445  0.6834240020207076
  0.2221005029099032  0.7777163274727883  0.1835263389229738
  0.2223050987200708  0.7778332445692442  0.6833240585073952
  0.5556207919052625  0.1112393055302832  0.1835245966207779
  0.5555051957525805  0.1110315247725850  0.6833230942250879
  0.5556813007873345  0.4445159165829580  0.1834667451574674
  0.5553963147903431  0.4443639651399494  0.6832487131782656
  0.5556072635206348  0.7777264322495725  0.1835292382371918
  0.5555185472705659  0.7778217757205894  0.6833302935123342
  0.8973008985893998  0.1153239496526695  0.1822897246614943
  0.8889786827390864  0.1111627526777070  0.6834240431077276
  0.8888294353289297  0.4445055931675768  0.1834698758325999
  0.8889576967123816  0.4443775220281481  0.6832492670051380
  0.8888178408433589  0.7776515560614783  0.1834673418655441
  0.8889728409354802  0.7779422653878711  0.6832527353013589
  0.1111132276600699  0.2222192825309008  0.6329585468424810
  0.1110015991410762  0.5540760389555572  0.1331878835237816
  0.1112538858640022  0.5553038780257822  0.6328133304648418
  0.1110027745600490  0.8902240214237125  0.1331849453672902
  0.1112534653422941  0.8892753682911660  0.6328020929663580
  0.4430999027450895  0.2223240008301062  0.1331820463993694
  0.4440557056899976  0.2220772951084058  0.6328032487928255
  0.4430686984282062  0.5540766965687283  0.1331950747959851
  0.4440569184365231  0.5553004183368486  0.6328058113303499
  0.4444434625386862  0.8888875209041061  0.1328227642752466
  0.4444450018766304  0.8888880551920693  0.6319824745638982
  0.7792468424646586  0.2223249921623562  0.1331895419721434
  0.7780281403834834  0.2220777201639734  0.6328124465569758
  0.7777813394548829  0.5555414204851061  0.1330244330084867
  0.7777800525754586  0.5555529945158213  0.6333292979621703
  0.7792431692187947  0.8902524098451465  0.1331987235156404
  0.7780319501601838  0.8892748050108708  0.6328035326242158
  0.2200502257567294  0.1132827116447501  0.3644641785240239
  0.2217063141502535  0.1116269195460262  0.8698198609214032
  0.2200219758458459  0.4400369527152890  0.3644380585011504
  0.2217083679628686  0.4434207073223249  0.8698198228033434
  0.2220761698324907  0.7777012924361841  0.3679753991938739
  0.2223509128823551  0.7778465801834855  0.8683087056586629
  0.5556319819984594  0.1112602155354665  0.3679758964480158
  0.5554909497865737  0.1109870572650635  0.8683084145163349
  0.5555637261674846  0.4444537445561565  0.3683541225017493
  0.5554621466149712  0.4444009078116835  0.8685708297727288
  0.5556240610199410  0.7777056166075909  0.3679806780770676
  0.5554893516661892  0.7778478703781389  0.8683135213875488
  0.8932832253259519  0.1133049721076418  0.3644527171439051
  0.8899172110287523  0.1116275430668949  0.8698213573009284
  0.8888916299215310  0.4444463051120593  0.3683614006369140
  0.8889196891171451  0.4444168580810910  0.8685521499693820
  0.8888809382576497  0.7777702346710882  0.3683532707631230
  0.8889418393205517  0.7778877110157651  0.8685810028983880
 
  0.00000000E+00  0.00000000E+00  0.00000000E+00
  0.00000000E+00  0.00000000E+00  0.00000000E+00
  0.00000000E+00  0.00000000E+00  0.00000000E+00
  0.00000000E+00  0.00000000E+00  0.00000000E+00
  0.00000000E+00  0.00000000E+00  0.00000000E+00
  0.00000000E+00  0.00000000E+00  0.00000000E+00
  0.00000000E+00  0.00000000E+00  0.00000000E+00
  0.00000000E+00  0.00000000E+00  0.00000000E+00
  0.00000000E+00  0.00000000E+00  0.00000000E+00
  0.00000000E+00  0.00000000E+00  0.00000000E+00
  0.00000000E+00  0.00000000E+00  0.00000000E+00
  0.00000000E+00  0.00000000E+00  0.00000000E+00
  0.00000000E+00  0.00000000E+00  0.00000000E+00
  0.00000000E+00  0.00000000E+00  0.00000000E+00
  0.00000000E+00  0.00000000E+00  0.00000000E+00
  0.00000000E+00  0.00000000E+00  0.00000000E+00
  0.00000000E+00  0.00000000E+00  0.00000000E+00
  0.00000000E+00  0.00000000E+00  0.00000000E+00
  0.00000000E+00  0.00000000E+00  0.00000000E+00
  0.00000000E+00  0.00000000E+00  0.00000000E+00
  0.00000000E+00  0.00000000E+00  0.00000000E+00
  0.00000000E+00  0.00000000E+00  0.00000000E+00
  0.00000000E+00  0.00000000E+00  0.00000000E+00
  0.00000000E+00  0.00000000E+00  0.00000000E+00
  0.00000000E+00  0.00000000E+00  0.00000000E+00
  0.00000000E+00  0.00000000E+00  0.00000000E+00
  0.00000000E+00  0.00000000E+00  0.00000000E+00
  0.00000000E+00  0.00000000E+00  0.00000000E+00
  0.00000000E+00  0.00000000E+00  0.00000000E+00
  0.00000000E+00  0.00000000E+00  0.00000000E+00
  0.00000000E+00  0.00000000E+00  0.00000000E+00
  0.00000000E+00  0.00000000E+00  0.00000000E+00
  0.00000000E+00  0.00000000E+00  0.00000000E+00
  0.00000000E+00  0.00000000E+00  0.00000000E+00
  0.00000000E+00  0.00000000E+00  0.00000000E+00
  0.00000000E+00  0.00000000E+00  0.00000000E+00
  0.00000000E+00  0.00000000E+00  0.00000000E+00
  0.00000000E+00  0.00000000E+00  0.00000000E+00
  0.00000000E+00  0.00000000E+00  0.00000000E+00
  0.00000000E+00  0.00000000E+00  0.00000000E+00
  0.00000000E+00  0.00000000E+00  0.00000000E+00
  0.00000000E+00  0.00000000E+00  0.00000000E+00
  0.00000000E+00  0.00000000E+00  0.00000000E+00
  0.00000000E+00  0.00000000E+00  0.00000000E+00
  0.00000000E+00  0.00000000E+00  0.00000000E+00
  0.00000000E+00  0.00000000E+00  0.00000000E+00
  0.00000000E+00  0.00000000E+00  0.00000000E+00
  0.00000000E+00  0.00000000E+00  0.00000000E+00
  0.00000000E+00  0.00000000E+00  0.00000000E+00
  0.00000000E+00  0.00000000E+00  0.00000000E+00
  0.00000000E+00  0.00000000E+00  0.00000000E+00
  0.00000000E+00  0.00000000E+00  0.00000000E+00
  0.00000000E+00  0.00000000E+00  0.00000000E+00
  0.00000000E+00  0.00000000E+00  0.00000000E+00
  0.00000000E+00  0.00000000E+00  0.00000000E+00
  0.00000000E+00  0.00000000E+00  0.00000000E+00
  0.00000000E+00  0.00000000E+00  0.00000000E+00
  0.00000000E+00  0.00000000E+00  0.00000000E+00
  0.00000000E+00  0.00000000E+00  0.00000000E+00
  0.00000000E+00  0.00000000E+00  0.00000000E+00
  0.00000000E+00  0.00000000E+00  0.00000000E+00
  0.00000000E+00  0.00000000E+00  0.00000000E+00
  0.00000000E+00  0.00000000E+00  0.00000000E+00
  0.00000000E+00  0.00000000E+00  0.00000000E+00
  0.00000000E+00  0.00000000E+00  0.00000000E+00
  0.00000000E+00  0.00000000E+00  0.00000000E+00
  0.00000000E+00  0.00000000E+00  0.00000000E+00
  0.00000000E+00  0.00000000E+00  0.00000000E+00
  0.00000000E+00  0.00000000E+00  0.00000000E+00
  0.00000000E+00  0.00000000E+00  0.00000000E+00
  0.00000000E+00  0.00000000E+00  0.00000000E+00
  0.00000000E+00  0.00000000E+00  0.00000000E+00
  0.00000000E+00  0.00000000E+00  0.00000000E+00
  0.00000000E+00  0.00000000E+00  0.00000000E+00
  0.00000000E+00  0.00000000E+00  0.00000000E+00
  0.00000000E+00  0.00000000E+00  0.00000000E+00
  0.00000000E+00  0.00000000E+00  0.00000000E+00
  0.00000000E+00  0.00000000E+00  0.00000000E+00
  0.00000000E+00  0.00000000E+00  0.00000000E+00
  0.00000000E+00  0.00000000E+00  0.00000000E+00
  0.00000000E+00  0.00000000E+00  0.00000000E+00
  0.00000000E+00  0.00000000E+00  0.00000000E+00
  0.00000000E+00  0.00000000E+00  0.00000000E+00
  0.00000000E+00  0.00000000E+00  0.00000000E+00
  0.00000000E+00  0.00000000E+00  0.00000000E+00
  0.00000000E+00  0.00000000E+00  0.00000000E+00
  0.00000000E+00  0.00000000E+00  0.00000000E+00
  0.00000000E+00  0.00000000E+00  0.00000000E+00
  0.00000000E+00  0.00000000E+00  0.00000000E+00
