Ca72 Zn36 N72                           
   1.00000000000000     
    10.7221290000000007    0.0000000000000000    0.0000000000000000
     0.0000000000000000   10.7221290000000007    0.0000000000000000
     0.0000000000000000    0.0000000000000000   24.9777859999999983
   Zn   Ca   N 
    36    72    72
Direct
  0.3332454411388852  0.9987273978472473  0.9996193569924614
  0.3341541268658403  0.0030292503875344  0.4997402720788457
  0.3305094398020856  0.3303535603174765  0.9972847212013889
  0.3345270590947678  0.3345293747933908  0.5004721241755874
  0.3322077788605853  0.6676020815241586  0.9986878864419211
  0.3326847707513565  0.6708696697895391  0.5019600021436901
  0.6671659065187470  0.9991673092870457  0.9999816824371379
  0.6660073983644921  0.0028029410784143  0.4996449825301568
  0.6676021066290403  0.3322077285865745  0.9986877997498027
  0.6708683620297862  0.3326858412700275  0.5019603227587766
  0.6674735555203739  0.6674739601123392  0.9989305089524478
  0.6707951678163155  0.6708163886927068  0.5017885595640692
  0.9984028417879642  0.9984031991887790  0.9997081945558932
  0.0017607163418205  0.0017615241230402  0.5000338246141354
  0.9987248247908909  0.3332440988519565  0.9996197533969848
  0.0030283577562500  0.3341546736056813  0.4997403771074289
  0.9991679034707701  0.6671657427109849  0.9999818535568323
  0.0028007353549739  0.6660101604070618  0.4996443019804460
  0.1667182119096466  0.1667198379794215  0.2486103023937360
  0.1657083915744693  0.1657088786145877  0.7498756763617891
  0.1718251892616252  0.4908263277904013  0.2502838885838869
  0.1657470310904898  0.4988870684455335  0.7494304093435247
  0.1678789904864715  0.8299927267998299  0.2500643515612353
  0.1657008633651529  0.8342661821544937  0.7499639597530958
  0.4908257289796936  0.1718233663655013  0.2502852147740526
  0.4988874744791261  0.1657479335235124  0.7494289769343112
  0.3644693106223826  0.3645404443428362  0.3506715678674794
  0.4990220750595071  0.4990257127318358  0.7499343002047638
  0.4970698632336337  0.8345402761152556  0.2499765897973489
  0.5001125613992841  0.8329208232117509  0.7499238728348416
  0.8299910083465676  0.1678832322471706  0.2500645200609952
  0.8342658547014281  0.1657012530125215  0.7499639961458797
  0.8345402074461958  0.4970702496244215  0.2499766453286298
  0.8329204718072916  0.5001156307591188  0.7499237500233562
  0.8321555925870712  0.8321692218530501  0.2501599188195556
  0.8342798107937170  0.8342800478681127  0.7499297636568656
  0.9988380699233659  0.3316558658042936  0.1681595976769188
  0.0003715874673063  0.3335004098923946  0.6685544133060972
  0.9994327039902160  0.6665846309231540  0.1690248687520253
  0.0005277732507452  0.6672133223128967  0.6687212391779767
  0.9999396031633694  0.9999412400798278  0.1691246717551493
  0.0003918328016468  0.0003934218374653  0.6687868084014212
  0.3272417450736569  0.3272367717662235  0.1605880089998237
  0.3334709044499462  0.3334727076281254  0.6687369157661038
  0.3363011137962957  0.6656382438400215  0.1663607911751726
  0.3335626514871777  0.6667453258205072  0.6690864251580351
  0.3316548236964394  0.9988391631710698  0.1681603269579455
  0.3334979199180026  0.0003751382219264  0.6685545667976101
  0.6656389737652333  0.3363027744466009  0.1663605052569892
  0.6667420329982932  0.3335660055943350  0.6690864968950194
  0.6605669890475525  0.6605686300608582  0.1692819110658235
  0.6670554136571027  0.6670575805638919  0.6691343103620824
  0.6665838530716002  0.9994338283060102  0.1690254535321216
  0.6672094353342430  0.0005321295622736  0.6687211047795429
  0.9972753579992144  0.9972779435911932  0.3307558609051640
  0.9995185615795705  0.9995189076428588  0.8311073983922839
  0.0071808263281667  0.3281815735268694  0.3308122231763164
  0.9987303830505851  0.3329892879540353  0.8309803260257382
  0.9993196148156969  0.6683003220825086  0.3312771598511546
  0.9990218627420120  0.6664475128775464  0.8310867032512093
  0.3281843735581660  0.0071870038752735  0.3308117061645177
  0.3329881211007049  0.9987310622062679  0.8309801425068812
  0.4449017335372218  0.4448901417187798  0.2535343507983470
  0.3324306933694032  0.3324271159726564  0.8303980305444085
  0.3386960891103428  0.6695836853581838  0.3350819649979186
  0.3332350178873114  0.6659809817055375  0.8308730888092768
  0.6682892112728283  0.9993362196333138  0.3312782791423103
  0.6664494964744989  0.9990193490046906  0.8310853661890789
  0.6695770343845453  0.3386943551994577  0.3350829154934871
  0.6659810482679944  0.3332375841644932  0.8308722793872718
  0.6630478856221984  0.6630529690189135  0.3325966557616979
  0.6659749393802485  0.6659757851997057  0.8309263236143991
  0.1700418835427442  0.1700436971328401  0.4154092278510504
  0.1656903096394799  0.1656879503646991  0.9178758369885855
  0.1713662814120696  0.4997066177755514  0.4183157281492953
  0.1660133256357952  0.4991068019866773  0.9178537391478656
  0.1666785832317146  0.8352758295126677  0.4189075178842572
  0.1661100930611497  0.8330283761147896  0.9184324192866171
  0.4996945721718831  0.1713793849688656  0.4183117852464164
  0.4991255799129064  0.1660028450675028  0.9178469299771947
  0.5077716159516683  0.5077708017003744  0.4262392631841436
  0.4993557399723727  0.4993542255935211  0.9180647480653050
  0.5005901480132025  0.8384628056346699  0.4192372480925286
  0.4997146121696261  0.8324587400300842  0.9184356169248957
  0.8352735408824685  0.1666792774301982  0.4189080135359191
  0.8330297893830831  0.1661103073579682  0.9184321019162809
  0.8384595159698378  0.5005914346919056  0.4192375902945074
  0.8324594143855322  0.4997161916996049  0.9184356018435906
  0.8340248232234586  0.8340282423730727  0.4190994097884939
  0.8329402537304631  0.8329405327900403  0.9185129255508429
  0.1640899204395936  0.1640863973910740  0.0794167373569010
  0.1666654449310130  0.1666669157993397  0.5810994026137877
  0.1650807731313435  0.5017133160366569  0.0800825795368780
  0.1672736358290337  0.5009238450825535  0.5813674833704141
  0.1658950692274814  0.8335354319644779  0.0810149577113393
  0.1668189310447161  0.8343522551288061  0.5814010854760809
  0.5017277858083702  0.1650738716613560  0.0800893973110632
  0.5009200317617939  0.1672771943941953  0.5813671795262252
  0.5003034726047844  0.5003019848607764  0.0785046278046053
  0.5009346477821737  0.5009370979518835  0.5821523700733806
  0.5009455531487319  0.8328196062716557  0.0809435438285462
  0.5007781741782509  0.8340578151324536  0.5816115724396766
  0.8335365713540028  0.1658953388103157  0.0810149414764680
  0.8343496106548969  0.1668209538377710  0.5814013724695286
  0.8328208716281225  0.5009485912551312  0.0809434574101786
  0.8340544557112608  0.5007820037093751  0.5816110006144086
  0.8322596153877697  0.8322609026995735  0.0819096029150259
  0.8344833327335479  0.8344857742173133  0.5812607109835781
  0.3338290846478884  0.9996796435600359  0.0724944582470499
  0.3338793746064965  0.0007374613008508  0.5725832431420912
  0.3307923092289116  0.3307545742523743  0.0695072539303183
  0.3338980428079807  0.3339002631161065  0.5729818033790579
  0.3312901304932225  0.6676178392334791  0.0712697656509675
  0.3340420302129488  0.6671325451932688  0.5744988527907537
  0.6662552624166267  0.0000764491959373  0.0730357306876570
  0.6673196873607310  0.0009229170569043  0.5724746559984055
  0.6676265910313006  0.3312922335984396  0.0712698621961039
  0.6671300551435593  0.3340449535038914  0.5744990616683978
  0.6676309672233600  0.6676315508043658  0.0715857242636133
  0.6673424946950490  0.6673463257623666  0.5743316644162846
  0.9990058120350014  0.9990063738241872  0.0725596856554489
  0.0008250115319939  0.0008274381500684  0.5729925408300929
  0.9996882909064055  0.3338294227612550  0.0724943246996617
  0.0007347678244116  0.3338820759406218  0.5725833502549094
  0.0000790657109278  0.6662524050368646  0.0730358377969438
  0.0009197198846636  0.6673225588333693  0.5724738135286387
  0.3346287798102310  0.0042734027565601  0.4266341081879190
  0.3328515556246856  0.9991005530136832  0.9267507808522311
  0.3350080072119397  0.3350157532356306  0.4281317908860203
  0.3324298989546364  0.3324015040368451  0.9248142984929402
  0.3341933494586939  0.6716958264225781  0.4295555850430404
  0.3330415374227798  0.6658652773110774  0.9259624806851932
  0.6659874069128406  0.0032072319578731  0.4264643784170303
  0.6662790914907006  0.9992623063772399  0.9270804586632408
  0.6716949506126824  0.3341963138183885  0.4295560026170193
  0.6658700383179621  0.3330419995275022  0.9259620578139405
  0.6714955865646459  0.6714977587785000  0.4292006040491643
  0.6660563329821869  0.6660566514743920  0.9260944202421584
  0.0006867884601860  0.0006884737165649  0.4272647094103519
  0.9992356854194995  0.9992358828225605  0.9268389526650651
  0.0042716839548547  0.3346316582593332  0.4266340501533250
  0.9991045513665284  0.3328507990612550  0.9267514327797883
  0.0032050758487827  0.6659888654286448  0.4264633422993853
  0.9992646980487834  0.6662763053228744  0.9270809026015243
  0.1529454829428403  0.1529471190200482  0.3207413797143062
  0.1656192483788885  0.1656199425327287  0.8226064876953316
  0.1947513478238392  0.4844245278365023  0.3226693853189033
  0.1654511685560323  0.4993113492531407  0.8221985853440614
  0.1663550737231176  0.8276685210529635  0.3231330001533621
  0.1659484857004188  0.8331201104322190  0.8227865819578497
  0.4844447817836510  0.1947219921382484  0.3226696580816082
  0.4993144177812212  0.1654502736721071  0.8221959563886401
  0.5033252388078111  0.5033289917442048  0.3344690590966621
  0.4992036764500725  0.4992052743903841  0.8226188777529515
  0.4994153134528005  0.8393759499137374  0.3229414472611367
  0.4996231623101295  0.8327216898356937  0.8227359015602218
  0.8276718577207376  0.1663592709840600  0.3231334309367782
  0.8331193971236672  0.1659494085744910  0.8227866330142461
  0.8393790819251947  0.4994182083488639  0.3229412126042774
  0.8327206474834554  0.4996248883175909  0.8227357326044924
  0.8313248539829416  0.8313288108347408  0.3232552129584860
  0.8331995727221084  0.8332000171295064  0.8227463838740121
  0.1667921540318744  0.1667939029043453  0.1751670814007653
  0.1667510376043921  0.1667532556999234  0.6769563659375635
  0.1696660489259756  0.4975768798664006  0.1777353718033723
  0.1665463029518151  0.4998489368684318  0.6766172618499908
  0.1663157110527393  0.8331199931316888  0.1770900124490211
  0.1665301854287620  0.8339430369626726  0.6770992945954859
  0.4975774831163520  0.1696686234999163  0.1777365487037912
  0.4998448816891354  0.1665498444028728  0.6766161906546202
  0.5017230629200498  0.5017250621527012  0.1717939738517629
  0.4998424351440462  0.4998458760168134  0.6772049257640660
  0.4987485924215420  0.8346903620052402  0.1770451961682014
  0.5006390855606710  0.8340300493849568  0.6771039317180154
  0.8331185850369920  0.1663181982149666  0.1770899697733839
  0.8339408273291866  0.1665327352480830  0.6770994420595713
  0.8346889452118020  0.4987508777807577  0.1770452901834645
  0.8340275710206484  0.5006429858618873  0.6771037108193312
  0.8334238456465215  0.8334269657208608  0.1774786225845091
  0.8340639329564823  0.8340660088131813  0.6770287522134879
 
  0.00000000E+00  0.00000000E+00  0.00000000E+00
  0.00000000E+00  0.00000000E+00  0.00000000E+00
  0.00000000E+00  0.00000000E+00  0.00000000E+00
  0.00000000E+00  0.00000000E+00  0.00000000E+00
  0.00000000E+00  0.00000000E+00  0.00000000E+00
  0.00000000E+00  0.00000000E+00  0.00000000E+00
  0.00000000E+00  0.00000000E+00  0.00000000E+00
  0.00000000E+00  0.00000000E+00  0.00000000E+00
  0.00000000E+00  0.00000000E+00  0.00000000E+00
  0.00000000E+00  0.00000000E+00  0.00000000E+00
  0.00000000E+00  0.00000000E+00  0.00000000E+00
  0.00000000E+00  0.00000000E+00  0.00000000E+00
  0.00000000E+00  0.00000000E+00  0.00000000E+00
  0.00000000E+00  0.00000000E+00  0.00000000E+00
  0.00000000E+00  0.00000000E+00  0.00000000E+00
  0.00000000E+00  0.00000000E+00  0.00000000E+00
  0.00000000E+00  0.00000000E+00  0.00000000E+00
  0.00000000E+00  0.00000000E+00  0.00000000E+00
  0.00000000E+00  0.00000000E+00  0.00000000E+00
  0.00000000E+00  0.00000000E+00  0.00000000E+00
  0.00000000E+00  0.00000000E+00  0.00000000E+00
  0.00000000E+00  0.00000000E+00  0.00000000E+00
  0.00000000E+00  0.00000000E+00  0.00000000E+00
  0.00000000E+00  0.00000000E+00  0.00000000E+00
  0.00000000E+00  0.00000000E+00  0.00000000E+00
  0.00000000E+00  0.00000000E+00  0.00000000E+00
  0.00000000E+00  0.00000000E+00  0.00000000E+00
  0.00000000E+00  0.00000000E+00  0.00000000E+00
  0.00000000E+00  0.00000000E+00  0.00000000E+00
  0.00000000E+00  0.00000000E+00  0.00000000E+00
  0.00000000E+00  0.00000000E+00  0.00000000E+00
  0.00000000E+00  0.00000000E+00  0.00000000E+00
  0.00000000E+00  0.00000000E+00  0.00000000E+00
  0.00000000E+00  0.00000000E+00  0.00000000E+00
  0.00000000E+00  0.00000000E+00  0.00000000E+00
  0.00000000E+00  0.00000000E+00  0.00000000E+00
  0.00000000E+00  0.00000000E+00  0.00000000E+00
  0.00000000E+00  0.00000000E+00  0.00000000E+00
  0.00000000E+00  0.00000000E+00  0.00000000E+00
  0.00000000E+00  0.00000000E+00  0.00000000E+00
  0.00000000E+00  0.00000000E+00  0.00000000E+00
  0.00000000E+00  0.00000000E+00  0.00000000E+00
  0.00000000E+00  0.00000000E+00  0.00000000E+00
  0.00000000E+00  0.00000000E+00  0.00000000E+00
  0.00000000E+00  0.00000000E+00  0.00000000E+00
  0.00000000E+00  0.00000000E+00  0.00000000E+00
  0.00000000E+00  0.00000000E+00  0.00000000E+00
  0.00000000E+00  0.00000000E+00  0.00000000E+00
  0.00000000E+00  0.00000000E+00  0.00000000E+00
  0.00000000E+00  0.00000000E+00  0.00000000E+00
  0.00000000E+00  0.00000000E+00  0.00000000E+00
  0.00000000E+00  0.00000000E+00  0.00000000E+00
  0.00000000E+00  0.00000000E+00  0.00000000E+00
  0.00000000E+00  0.00000000E+00  0.00000000E+00
  0.00000000E+00  0.00000000E+00  0.00000000E+00
  0.00000000E+00  0.00000000E+00  0.00000000E+00
  0.00000000E+00  0.00000000E+00  0.00000000E+00
  0.00000000E+00  0.00000000E+00  0.00000000E+00
  0.00000000E+00  0.00000000E+00  0.00000000E+00
  0.00000000E+00  0.00000000E+00  0.00000000E+00
  0.00000000E+00  0.00000000E+00  0.00000000E+00
  0.00000000E+00  0.00000000E+00  0.00000000E+00
  0.00000000E+00  0.00000000E+00  0.00000000E+00
  0.00000000E+00  0.00000000E+00  0.00000000E+00
  0.00000000E+00  0.00000000E+00  0.00000000E+00
  0.00000000E+00  0.00000000E+00  0.00000000E+00
  0.00000000E+00  0.00000000E+00  0.00000000E+00
  0.00000000E+00  0.00000000E+00  0.00000000E+00
  0.00000000E+00  0.00000000E+00  0.00000000E+00
  0.00000000E+00  0.00000000E+00  0.00000000E+00
  0.00000000E+00  0.00000000E+00  0.00000000E+00
  0.00000000E+00  0.00000000E+00  0.00000000E+00
  0.00000000E+00  0.00000000E+00  0.00000000E+00
  0.00000000E+00  0.00000000E+00  0.00000000E+00
  0.00000000E+00  0.00000000E+00  0.00000000E+00
  0.00000000E+00  0.00000000E+00  0.00000000E+00
  0.00000000E+00  0.00000000E+00  0.00000000E+00
  0.00000000E+00  0.00000000E+00  0.00000000E+00
  0.00000000E+00  0.00000000E+00  0.00000000E+00
  0.00000000E+00  0.00000000E+00  0.00000000E+00
  0.00000000E+00  0.00000000E+00  0.00000000E+00
  0.00000000E+00  0.00000000E+00  0.00000000E+00
  0.00000000E+00  0.00000000E+00  0.00000000E+00
  0.00000000E+00  0.00000000E+00  0.00000000E+00
  0.00000000E+00  0.00000000E+00  0.00000000E+00
  0.00000000E+00  0.00000000E+00  0.00000000E+00
  0.00000000E+00  0.00000000E+00  0.00000000E+00
  0.00000000E+00  0.00000000E+00  0.00000000E+00
  0.00000000E+00  0.00000000E+00  0.00000000E+00
  0.00000000E+00  0.00000000E+00  0.00000000E+00
  0.00000000E+00  0.00000000E+00  0.00000000E+00
  0.00000000E+00  0.00000000E+00  0.00000000E+00
  0.00000000E+00  0.00000000E+00  0.00000000E+00
  0.00000000E+00  0.00000000E+00  0.00000000E+00
  0.00000000E+00  0.00000000E+00  0.00000000E+00
  0.00000000E+00  0.00000000E+00  0.00000000E+00
  0.00000000E+00  0.00000000E+00  0.00000000E+00
  0.00000000E+00  0.00000000E+00  0.00000000E+00
  0.00000000E+00  0.00000000E+00  0.00000000E+00
  0.00000000E+00  0.00000000E+00  0.00000000E+00
  0.00000000E+00  0.00000000E+00  0.00000000E+00
  0.00000000E+00  0.00000000E+00  0.00000000E+00
  0.00000000E+00  0.00000000E+00  0.00000000E+00
  0.00000000E+00  0.00000000E+00  0.00000000E+00
  0.00000000E+00  0.00000000E+00  0.00000000E+00
  0.00000000E+00  0.00000000E+00  0.00000000E+00
  0.00000000E+00  0.00000000E+00  0.00000000E+00
  0.00000000E+00  0.00000000E+00  0.00000000E+00
  0.00000000E+00  0.00000000E+00  0.00000000E+00
  0.00000000E+00  0.00000000E+00  0.00000000E+00
  0.00000000E+00  0.00000000E+00  0.00000000E+00
  0.00000000E+00  0.00000000E+00  0.00000000E+00
  0.00000000E+00  0.00000000E+00  0.00000000E+00
  0.00000000E+00  0.00000000E+00  0.00000000E+00
  0.00000000E+00  0.00000000E+00  0.00000000E+00
  0.00000000E+00  0.00000000E+00  0.00000000E+00
  0.00000000E+00  0.00000000E+00  0.00000000E+00
  0.00000000E+00  0.00000000E+00  0.00000000E+00
  0.00000000E+00  0.00000000E+00  0.00000000E+00
  0.00000000E+00  0.00000000E+00  0.00000000E+00
  0.00000000E+00  0.00000000E+00  0.00000000E+00
  0.00000000E+00  0.00000000E+00  0.00000000E+00
  0.00000000E+00  0.00000000E+00  0.00000000E+00
  0.00000000E+00  0.00000000E+00  0.00000000E+00
  0.00000000E+00  0.00000000E+00  0.00000000E+00
  0.00000000E+00  0.00000000E+00  0.00000000E+00
  0.00000000E+00  0.00000000E+00  0.00000000E+00
  0.00000000E+00  0.00000000E+00  0.00000000E+00
  0.00000000E+00  0.00000000E+00  0.00000000E+00
  0.00000000E+00  0.00000000E+00  0.00000000E+00
  0.00000000E+00  0.00000000E+00  0.00000000E+00
  0.00000000E+00  0.00000000E+00  0.00000000E+00
  0.00000000E+00  0.00000000E+00  0.00000000E+00
  0.00000000E+00  0.00000000E+00  0.00000000E+00
  0.00000000E+00  0.00000000E+00  0.00000000E+00
  0.00000000E+00  0.00000000E+00  0.00000000E+00
  0.00000000E+00  0.00000000E+00  0.00000000E+00
  0.00000000E+00  0.00000000E+00  0.00000000E+00
  0.00000000E+00  0.00000000E+00  0.00000000E+00
  0.00000000E+00  0.00000000E+00  0.00000000E+00
  0.00000000E+00  0.00000000E+00  0.00000000E+00
  0.00000000E+00  0.00000000E+00  0.00000000E+00
  0.00000000E+00  0.00000000E+00  0.00000000E+00
  0.00000000E+00  0.00000000E+00  0.00000000E+00
  0.00000000E+00  0.00000000E+00  0.00000000E+00
  0.00000000E+00  0.00000000E+00  0.00000000E+00
  0.00000000E+00  0.00000000E+00  0.00000000E+00
  0.00000000E+00  0.00000000E+00  0.00000000E+00
  0.00000000E+00  0.00000000E+00  0.00000000E+00
  0.00000000E+00  0.00000000E+00  0.00000000E+00
  0.00000000E+00  0.00000000E+00  0.00000000E+00
  0.00000000E+00  0.00000000E+00  0.00000000E+00
  0.00000000E+00  0.00000000E+00  0.00000000E+00
  0.00000000E+00  0.00000000E+00  0.00000000E+00
  0.00000000E+00  0.00000000E+00  0.00000000E+00
  0.00000000E+00  0.00000000E+00  0.00000000E+00
  0.00000000E+00  0.00000000E+00  0.00000000E+00
  0.00000000E+00  0.00000000E+00  0.00000000E+00
  0.00000000E+00  0.00000000E+00  0.00000000E+00
  0.00000000E+00  0.00000000E+00  0.00000000E+00
  0.00000000E+00  0.00000000E+00  0.00000000E+00
  0.00000000E+00  0.00000000E+00  0.00000000E+00
  0.00000000E+00  0.00000000E+00  0.00000000E+00
  0.00000000E+00  0.00000000E+00  0.00000000E+00
  0.00000000E+00  0.00000000E+00  0.00000000E+00
  0.00000000E+00  0.00000000E+00  0.00000000E+00
  0.00000000E+00  0.00000000E+00  0.00000000E+00
  0.00000000E+00  0.00000000E+00  0.00000000E+00
  0.00000000E+00  0.00000000E+00  0.00000000E+00
  0.00000000E+00  0.00000000E+00  0.00000000E+00
  0.00000000E+00  0.00000000E+00  0.00000000E+00
  0.00000000E+00  0.00000000E+00  0.00000000E+00
  0.00000000E+00  0.00000000E+00  0.00000000E+00
  0.00000000E+00  0.00000000E+00  0.00000000E+00
  0.00000000E+00  0.00000000E+00  0.00000000E+00
  0.00000000E+00  0.00000000E+00  0.00000000E+00
  0.00000000E+00  0.00000000E+00  0.00000000E+00
  0.00000000E+00  0.00000000E+00  0.00000000E+00
  0.00000000E+00  0.00000000E+00  0.00000000E+00
  0.00000000E+00  0.00000000E+00  0.00000000E+00
