generated by phonopy
   1.0
     3.5740430129276906    0.0000000064516004   -0.0000000415304223
     0.0000000066208046    3.5740429867803649   -0.0000000068262880
    -0.0000001452970700   -0.0000000251756745   12.4888928867217803
Zn Ca N
   2    4    4
Direct
  0.9999999846733233  0.0000000014624888  0.0000001431555603
  0.4999999862979081  0.4999999979765731  0.4999999075045807
  0.0000001267509901  0.9999999998417833  0.3375676700735823
  0.0000001192640440  0.0000000133304923  0.6624323354113031
  0.5000001455732318  0.5000000049268181  0.8375676501204908
  0.5000001113528542  0.4999999859147691  0.1624323490736828
  0.9992300448931939  0.0000000190263378  0.1450055380548942
  0.9999999063028825  0.0000000025123370  0.8542244579717249
  0.4999998943376554  0.4999999993424781  0.6457755104868852
  0.4999998715888694  0.4999999756659221  0.3542246291822480
