Sr18 Zn36 N36                           
   1.00000000000000     
    10.5103020513914540   -0.0000071506848411    0.0000174217288897
    -5.2551645773778803    9.1021834141708347   -0.0000162632556351
     0.0000229827369256   -0.0000119371204169   12.5232390857362859
   Sr   Zn   N 
    17    36    36
Direct
  0.3335601557853067  0.3333212999289188  0.9999999681411680
  0.3330023044843102  0.3422403446887969  0.4998722937488580
  0.3333397423850926  0.6666603538407401  0.0005985539211721
  0.3335670153089723  0.0002238569164348  0.9999769221565913
  0.3330065728697988  0.9907375386989230  0.4999035258288131
  0.6666764585924554  0.3333236923190981  0.0046022429403507
  0.6666716947653839  0.3333283556503517  0.4992982117683127
  0.6666780656496201  0.6664398144640984  0.9999991873307650
  0.6577603115199651  0.6669966320326353  0.4998711014889849
  0.6666722671748033  0.0002435570579777  0.0000194713896917
  0.6577714397688155  0.9907789803100258  0.4998618073274770
  0.9997568415740972  0.3333281414480140  0.0000195032657331
  0.0092192419283634  0.3422278720641501  0.4998603583232040
  0.9997755694383557  0.6664330856705476  0.9999773482974419
  0.0092643485101362  0.6669946781515748  0.4999048136149113
  0.9999962620041813  0.0000036123230345  0.9951715085082782
  0.9999974527010735  0.0000026830979110  0.5005281036435818
  0.1094702954982765  0.2189600564723619  0.3134108576447971
  0.1137985576251381  0.2275706579681582  0.8110866810381339
  0.1255148982397998  0.5627526569307690  0.3200033272839846
  0.1105171618588656  0.5552475615483345  0.8157137062679425
  0.1095011316768435  0.8904991062961258  0.3134706333570705
  0.1137810639784504  0.8862190319190404  0.8111269547421287
  0.4433519961095485  0.2216709604002531  0.3154007751317280
  0.4449104133226101  0.2224872290181850  0.8140692083975978
  0.4372434250591866  0.5627573853406886  0.3200033584194557
  0.4447329466826773  0.5552645103581924  0.8156931041763542
  0.4372466286446297  0.8744852229805744  0.3200033302390537
  0.4447541846291472  0.8894828383764946  0.8157134939192332
  0.7783107792720330  0.2216873894228115  0.3152975455145466
  0.7775665666507336  0.2224338896265294  0.8140789167059950
  0.7783325712857234  0.5566479928287293  0.3154010004107093
  0.7775124767508785  0.5550892965057059  0.8140689271737429
  0.7810397080729246  0.8905288369533579  0.3134111341429104
  0.7724292857070481  0.8862012620629471  0.8110859296884385
  0.2225419065156302  0.1111626298199866  0.1846694626434342
  0.2231100418981455  0.1115334682193776  0.6846506120564371
  0.2217890919769800  0.4435722810300646  0.1848790583370530
  0.2290174763437918  0.4580592699641173  0.6812706477233021
  0.2218021129068291  0.7781980398796264  0.1848874319615490
  0.2290802581308000  0.7709255122378380  0.6812413865181739
  0.5525804019433878  0.1056568597365199  0.1899346388583467
  0.5563029125259860  0.1126027518082822  0.6854149184793741
  0.5528313342451625  0.4471738210034459  0.1899619685233418
  0.5562928548951618  0.4437070629707236  0.6854004432469623
  0.5564276578155543  0.7782107733274160  0.1848789909686772
  0.5419406617019931  0.7709773752799904  0.6812708253493653
  0.8887143797904855  0.1112842592975412  0.1846764578961455
  0.8884289844086837  0.1115722975175686  0.6846708185213402
  0.8943430681325353  0.4474167431884624  0.1899346203508330
  0.8873972220481363  0.4436970808114680  0.6854148988368465
  0.8888352866730784  0.7774579165160631  0.1846695119700001
  0.8884661538335195  0.7768901584417662  0.6846504898545902
  0.1101815870729865  0.2203268603388224  0.1366810475676559
  0.1122841469165579  0.2245677778946344  0.6385809814087580
  0.1111313372149851  0.5555717802134907  0.1364755578699004
  0.1060209217659391  0.5530083234656971  0.6464284627348675
  0.1101958956010449  0.8898030909160184  0.1366560574234512
  0.1122886479899421  0.8877115043262265  0.6385899599328511
  0.4442405585644451  0.2221190052561894  0.1407877860349487
  0.4448986213256489  0.2224470844962809  0.6381521770100207
  0.4444444764026443  0.5555552280217100  0.1364747976080238
  0.4469824383712933  0.5530150656299924  0.6464158784039071
  0.4444285172951652  0.8888687007875546  0.1364755100350123
  0.4469935612237848  0.8939787265795118  0.6464285983577014
  0.7778496179517305  0.2221516170506703  0.1408190688727728
  0.7775470038664167  0.2224538361173884  0.6381493320987275
  0.7778799143006552  0.5557595120959746  0.1407878327823511
  0.7775522043196617  0.5551015334883687  0.6381521611929415
  0.7796726355146859  0.8898184713518376  0.1366807639016514
  0.7754323581026270  0.8877160107997923  0.6385809331864820
  0.2217211805839128  0.1108502847905299  0.3614940938318725
  0.2226275688571704  0.1113139101516936  0.8591558652062901
  0.2193008565500563  0.4385927279562338  0.3535584265909293
  0.2222955919122143  0.4445982329738598  0.8637243081394956
  0.2193028031756441  0.7806987254248767  0.3535686742128519
  0.2223061482635273  0.7776941739370500  0.8637141846352279
  0.5542674925183491  0.1085572348526469  0.3617066492565186
  0.5564621680784896  0.1129225286732236  0.8629355921635593
  0.5542877828201398  0.4457115150013351  0.3616857650555403
  0.5564511365857641  0.4435482172945484  0.8629318964191839
  0.5614073021526949  0.7806978801970885  0.3535584258470763
  0.5554017851078896  0.7777039524097233  0.8637242099965619
  0.8891360885316288  0.1108638920525635  0.3614981051585815
  0.8886879437849515  0.1113135019532976  0.8591536010927356
  0.8914430252796564  0.4457336907508704  0.3617068461635640
  0.8870776418353614  0.4435384799886180  0.8629355686989513
  0.8891496070090170  0.7782788776870007  0.3614941159361891
  0.8886847918422163  0.7773723603519400  0.8591557771279099
 
  0.00000000E+00  0.00000000E+00  0.00000000E+00
  0.00000000E+00  0.00000000E+00  0.00000000E+00
  0.00000000E+00  0.00000000E+00  0.00000000E+00
  0.00000000E+00  0.00000000E+00  0.00000000E+00
  0.00000000E+00  0.00000000E+00  0.00000000E+00
  0.00000000E+00  0.00000000E+00  0.00000000E+00
  0.00000000E+00  0.00000000E+00  0.00000000E+00
  0.00000000E+00  0.00000000E+00  0.00000000E+00
  0.00000000E+00  0.00000000E+00  0.00000000E+00
  0.00000000E+00  0.00000000E+00  0.00000000E+00
  0.00000000E+00  0.00000000E+00  0.00000000E+00
  0.00000000E+00  0.00000000E+00  0.00000000E+00
  0.00000000E+00  0.00000000E+00  0.00000000E+00
  0.00000000E+00  0.00000000E+00  0.00000000E+00
  0.00000000E+00  0.00000000E+00  0.00000000E+00
  0.00000000E+00  0.00000000E+00  0.00000000E+00
  0.00000000E+00  0.00000000E+00  0.00000000E+00
  0.00000000E+00  0.00000000E+00  0.00000000E+00
  0.00000000E+00  0.00000000E+00  0.00000000E+00
  0.00000000E+00  0.00000000E+00  0.00000000E+00
  0.00000000E+00  0.00000000E+00  0.00000000E+00
  0.00000000E+00  0.00000000E+00  0.00000000E+00
  0.00000000E+00  0.00000000E+00  0.00000000E+00
  0.00000000E+00  0.00000000E+00  0.00000000E+00
  0.00000000E+00  0.00000000E+00  0.00000000E+00
  0.00000000E+00  0.00000000E+00  0.00000000E+00
  0.00000000E+00  0.00000000E+00  0.00000000E+00
  0.00000000E+00  0.00000000E+00  0.00000000E+00
  0.00000000E+00  0.00000000E+00  0.00000000E+00
  0.00000000E+00  0.00000000E+00  0.00000000E+00
  0.00000000E+00  0.00000000E+00  0.00000000E+00
  0.00000000E+00  0.00000000E+00  0.00000000E+00
  0.00000000E+00  0.00000000E+00  0.00000000E+00
  0.00000000E+00  0.00000000E+00  0.00000000E+00
  0.00000000E+00  0.00000000E+00  0.00000000E+00
  0.00000000E+00  0.00000000E+00  0.00000000E+00
  0.00000000E+00  0.00000000E+00  0.00000000E+00
  0.00000000E+00  0.00000000E+00  0.00000000E+00
  0.00000000E+00  0.00000000E+00  0.00000000E+00
  0.00000000E+00  0.00000000E+00  0.00000000E+00
  0.00000000E+00  0.00000000E+00  0.00000000E+00
  0.00000000E+00  0.00000000E+00  0.00000000E+00
  0.00000000E+00  0.00000000E+00  0.00000000E+00
  0.00000000E+00  0.00000000E+00  0.00000000E+00
  0.00000000E+00  0.00000000E+00  0.00000000E+00
  0.00000000E+00  0.00000000E+00  0.00000000E+00
  0.00000000E+00  0.00000000E+00  0.00000000E+00
  0.00000000E+00  0.00000000E+00  0.00000000E+00
  0.00000000E+00  0.00000000E+00  0.00000000E+00
  0.00000000E+00  0.00000000E+00  0.00000000E+00
  0.00000000E+00  0.00000000E+00  0.00000000E+00
  0.00000000E+00  0.00000000E+00  0.00000000E+00
  0.00000000E+00  0.00000000E+00  0.00000000E+00
  0.00000000E+00  0.00000000E+00  0.00000000E+00
  0.00000000E+00  0.00000000E+00  0.00000000E+00
  0.00000000E+00  0.00000000E+00  0.00000000E+00
  0.00000000E+00  0.00000000E+00  0.00000000E+00
  0.00000000E+00  0.00000000E+00  0.00000000E+00
  0.00000000E+00  0.00000000E+00  0.00000000E+00
  0.00000000E+00  0.00000000E+00  0.00000000E+00
  0.00000000E+00  0.00000000E+00  0.00000000E+00
  0.00000000E+00  0.00000000E+00  0.00000000E+00
  0.00000000E+00  0.00000000E+00  0.00000000E+00
  0.00000000E+00  0.00000000E+00  0.00000000E+00
  0.00000000E+00  0.00000000E+00  0.00000000E+00
  0.00000000E+00  0.00000000E+00  0.00000000E+00
  0.00000000E+00  0.00000000E+00  0.00000000E+00
  0.00000000E+00  0.00000000E+00  0.00000000E+00
  0.00000000E+00  0.00000000E+00  0.00000000E+00
  0.00000000E+00  0.00000000E+00  0.00000000E+00
  0.00000000E+00  0.00000000E+00  0.00000000E+00
  0.00000000E+00  0.00000000E+00  0.00000000E+00
  0.00000000E+00  0.00000000E+00  0.00000000E+00
  0.00000000E+00  0.00000000E+00  0.00000000E+00
  0.00000000E+00  0.00000000E+00  0.00000000E+00
  0.00000000E+00  0.00000000E+00  0.00000000E+00
  0.00000000E+00  0.00000000E+00  0.00000000E+00
  0.00000000E+00  0.00000000E+00  0.00000000E+00
  0.00000000E+00  0.00000000E+00  0.00000000E+00
  0.00000000E+00  0.00000000E+00  0.00000000E+00
  0.00000000E+00  0.00000000E+00  0.00000000E+00
  0.00000000E+00  0.00000000E+00  0.00000000E+00
  0.00000000E+00  0.00000000E+00  0.00000000E+00
  0.00000000E+00  0.00000000E+00  0.00000000E+00
  0.00000000E+00  0.00000000E+00  0.00000000E+00
  0.00000000E+00  0.00000000E+00  0.00000000E+00
  0.00000000E+00  0.00000000E+00  0.00000000E+00
  0.00000000E+00  0.00000000E+00  0.00000000E+00
  0.00000000E+00  0.00000000E+00  0.00000000E+00
