generated by phonopy                    
    1.000000000000000     
     4.0051976421304145   -0.0002125195298784    0.0000312149301172
    -2.0027828489697663    3.4681583891969110   -0.0000019355470738
     0.0000529893351214    0.0000266936445581    6.8010335851285584
   Ca   Zn   P 
     1     2     2
Direct
  0.9999999903303021  0.9999999981922798  0.9999999907970079
  0.3333275668439413  0.6666639399339900  0.6347359869535865
  0.6666724093143372  0.3333360608692288  0.3667347400626042
  0.3333352595650609  0.6666682984381254  0.2647144626045659
  0.6666647139463535  0.3333317025663760  0.7352852143252520
 
  0.00000000E+00  0.00000000E+00  0.00000000E+00
  0.00000000E+00  0.00000000E+00  0.00000000E+00
  0.00000000E+00  0.00000000E+00  0.00000000E+00
  0.00000000E+00  0.00000000E+00  0.00000000E+00
  0.00000000E+00  0.00000000E+00  0.00000000E+00
