generated by phonopy
   1.0
     4.0725539505811952    0.0002281611457614    0.0000400583972321
    -2.0360793851334646    3.5267398302638826    0.0000256426749476
     0.0000699398101255    0.0000908094361471    7.1018495591198105
Sr Zn P
   1    2    2
Direct
  0.9999999699240912  0.9999999786697705  0.9999994755406548
  0.3333376737212089  0.6666699416231223  0.6304685275458448
  0.6642068877899726  0.3333300556322016  0.3695326143556838
  0.3333309688977369  0.6666653785708490  0.2770547748094176
  0.6666689780315675  0.3333346455040495  0.7229445777484037
