generated by phonopy                    
   1.00000000000000     
     4.0725539505811952    0.0002281611457614    0.0000400583972321
    -2.0360793851334646    3.5267398302638826    0.0000256426749476
     0.0000699398101255    0.0000908094361471    7.1018495591198105
   Sr   Zn   P 
     1     2     2
Direct
  0.9999999699240902  0.9999999786697700  0.9999994755406547
  0.3333376737212106  0.6666699416231197  0.6304685275458439
  0.6666623494253940  0.3333300556322030  0.3695326143556841
  0.3333309688977337  0.6666653785708476  0.2770547748094145
  0.6691244396669873  0.3333346455040527  0.7229445777484003
 
  0.00000000E+00  0.00000000E+00  0.00000000E+00
  0.00000000E+00  0.00000000E+00  0.00000000E+00
  0.00000000E+00  0.00000000E+00  0.00000000E+00
  0.00000000E+00  0.00000000E+00  0.00000000E+00
  0.00000000E+00  0.00000000E+00  0.00000000E+00
