Sr18 Zn35 P36                           
   1.00000000000000     
    12.2176620000000007    0.0006840000000000    0.0001200000000000
    -6.1082380000000001   10.5802189999999996    0.0000770000000000
     0.0001400000000000    0.0001820000000000   14.2036990000000003
   Sr   Zn   P 
    18    35    36
Direct
  0.3327855249389131  0.3338334063228032  0.0017067374406778
  0.3335965755190173  0.3330155575921410  0.4998909615717011
  0.3322719039326643  0.6660729719859688  0.0005299857433982
  0.3302178376479858  0.6649841746816421  0.4951115625705427
  0.3329905872314427  0.9991668115705394  0.0017934057654045
  0.3336675070619464  0.0005071960506555  0.4997669499809518
  0.6676527022273291  0.3337422564054222  0.0017172520888522
  0.6661421877094824  0.3329498874312549  0.4998213990112603
  0.6667066046259791  0.6666384239336622  0.0006118434145961
  0.6669408474458010  0.6670553678535143  0.4992470457872926
  0.6665033555525710  0.0001434057835397  0.0006992364879679
  0.6668255582748728  0.9997627757460563  0.4990323340630241
  0.0006777661800896  0.3345395732374641  0.0005295616057595
  0.0015972884558337  0.3364008472505731  0.4950997973172022
  0.0005056128593139  0.6661859577832345  0.0005181285745124
  0.0015882746484976  0.6649997911260925  0.4951553694925508
  0.0002133745056838  0.0000387478620283  0.0006370354731970
  0.9996846753978943  0.9997046639852201  0.4991475478516207
  0.1141506599392486  0.2247576305625927  0.3146838471415023
  0.1128251945142367  0.2236317390208384  0.8148190265272675
  0.1108502028547065  0.5570274685808201  0.8148725969305559
  0.1142131853248074  0.8893843173149136  0.3146762147055924
  0.1127080359579011  0.8892843265427928  0.8149213904107597
  0.4441977924524423  0.2236310881279167  0.3149745905766181
  0.4441901157617352  0.2236072748339453  0.8151923118971638
  0.4418792356628032  0.5525518584453124  0.3146945562333840
  0.4430085352221127  0.5539690741330148  0.8148809963549866
  0.4419738776157303  0.8894638317743429  0.3146623593874693
  0.4434273759270297  0.8895704370076984  0.8149114731083387
  0.7772328751603865  0.2247054864759122  0.3146688898664607
  0.7772505693266041  0.2234215100846058  0.8148634890835993
  0.7773670326286179  0.5525056834105655  0.3147033106652799
  0.7776659078661723  0.5540748036861700  0.8149719109364213
  0.7777837800102461  0.8888913355544332  0.3132748062176560
  0.7775514548659999  0.8903181977202479  0.8149993971626444
  0.2199012000695291  0.1095061955897805  0.1854690634026781
  0.2205678756483849  0.1095507766533785  0.6848562011829316
  0.2155324737609732  0.4509850388268291  0.1938004333437107
  0.2207074789651386  0.4443812001299321  0.6846629099745769
  0.2156221872423671  0.7644320209357574  0.1937809262876300
  0.2222677268140529  0.7763236781949558  0.6845797100381930
  0.5565947763654933  0.1097482000554564  0.1855940784679504
  0.5557832196644341  0.1096600499009739  0.6848970861886983
  0.5568934077834129  0.4466577585082803  0.1854016292727749
  0.5569428045900864  0.4461369856864081  0.6848542639934507
  0.5538971597592379  0.7763069584331959  0.1847251525957887
  0.5540300352008245  0.7763193895858791  0.6848165766703360
  0.8901573088282433  0.1127906131778147  0.1847357455557415
  0.8901802225251245  0.1126340610295387  0.6848053608161209
  0.9022344052635560  0.4509843313918509  0.1937894034938594
  0.8901248612033683  0.4440605704841118  0.6847034440540796
  0.8891674019065121  0.7763736277596109  0.1847311522459592
  0.8890745610714461  0.7764099386391621  0.6848341847626216
  0.1115272653056039  0.2236196521180673  0.1389828048520201
  0.1109881710782901  0.2223332149513553  0.6377386179369751
  0.1111406348091464  0.5555399916068069  0.1327106770919855
  0.1110875617069311  0.5553996462367650  0.6378785496314805
  0.1112777167231371  0.8874765184348234  0.1389867399040696
  0.1108360409453937  0.8877844053411437  0.6378436442233877
  0.4444730369802983  0.2221844775905879  0.1392632737056019
  0.4444344906787663  0.2220997922841050  0.6391496211448882
  0.4429035847336635  0.5549560116807868  0.1389501766649275
  0.4437716310543820  0.5552784506747912  0.6377952723480078
  0.4430357168407468  0.8874943870406682  0.1390089517795374
  0.4441581846493321  0.8879404794145316  0.6377456135580672
  0.7790017929419193  0.2236093984307814  0.1389901644216849
  0.7782328152023652  0.2221941336901594  0.6377497496573525
  0.7789347148740973  0.5550156471318246  0.1389330868867305
  0.7785174238210502  0.5552875983295138  0.6378133741742289
  0.7777886644036371  0.8887902650175548  0.1381477414199992
  0.7777835290230257  0.8887653974500935  0.6384116253513810
  0.2224345363740952  0.1113138350795708  0.3610358103754692
  0.2224838213136238  0.1114546401606304  0.8617514841329665
  0.2248354198912352  0.4418237774636538  0.3621389731363038
  0.2220564886471905  0.4448570109158965  0.8608389113643540
  0.2248346280705746  0.7828926349169123  0.3621142125194226
  0.2224970391009293  0.7784544057567544  0.8611777320776142
  0.5552457921602993  0.1115859432121269  0.3608910608322233
  0.5552353196637370  0.1117346107861863  0.8615787811059263
  0.5557368964477121  0.4448688552958728  0.3611642805759558
  0.5556754524733662  0.4448259889046540  0.8618874226565367
  0.5554078213430600  0.7777240820159221  0.3602661259329523
  0.5550129132023471  0.7777747170912974  0.8611075543494238
  0.8889899208098839  0.1112408147473403  0.3602707593258714
  0.8893079313353454  0.1121740826183313  0.8612293668009059
  0.8837719323712463  0.4418353138976912  0.3621249783604554
  0.8888712591698678  0.4446185180446633  0.8610394224410669
  0.8890794411689313  0.7777056794451767  0.3602715288065426
  0.8889942887165247  0.7779893473620945  0.8609352666604622
 
  0.00000000E+00  0.00000000E+00  0.00000000E+00
  0.00000000E+00  0.00000000E+00  0.00000000E+00
  0.00000000E+00  0.00000000E+00  0.00000000E+00
  0.00000000E+00  0.00000000E+00  0.00000000E+00
  0.00000000E+00  0.00000000E+00  0.00000000E+00
  0.00000000E+00  0.00000000E+00  0.00000000E+00
  0.00000000E+00  0.00000000E+00  0.00000000E+00
  0.00000000E+00  0.00000000E+00  0.00000000E+00
  0.00000000E+00  0.00000000E+00  0.00000000E+00
  0.00000000E+00  0.00000000E+00  0.00000000E+00
  0.00000000E+00  0.00000000E+00  0.00000000E+00
  0.00000000E+00  0.00000000E+00  0.00000000E+00
  0.00000000E+00  0.00000000E+00  0.00000000E+00
  0.00000000E+00  0.00000000E+00  0.00000000E+00
  0.00000000E+00  0.00000000E+00  0.00000000E+00
  0.00000000E+00  0.00000000E+00  0.00000000E+00
  0.00000000E+00  0.00000000E+00  0.00000000E+00
  0.00000000E+00  0.00000000E+00  0.00000000E+00
  0.00000000E+00  0.00000000E+00  0.00000000E+00
  0.00000000E+00  0.00000000E+00  0.00000000E+00
  0.00000000E+00  0.00000000E+00  0.00000000E+00
  0.00000000E+00  0.00000000E+00  0.00000000E+00
  0.00000000E+00  0.00000000E+00  0.00000000E+00
  0.00000000E+00  0.00000000E+00  0.00000000E+00
  0.00000000E+00  0.00000000E+00  0.00000000E+00
  0.00000000E+00  0.00000000E+00  0.00000000E+00
  0.00000000E+00  0.00000000E+00  0.00000000E+00
  0.00000000E+00  0.00000000E+00  0.00000000E+00
  0.00000000E+00  0.00000000E+00  0.00000000E+00
  0.00000000E+00  0.00000000E+00  0.00000000E+00
  0.00000000E+00  0.00000000E+00  0.00000000E+00
  0.00000000E+00  0.00000000E+00  0.00000000E+00
  0.00000000E+00  0.00000000E+00  0.00000000E+00
  0.00000000E+00  0.00000000E+00  0.00000000E+00
  0.00000000E+00  0.00000000E+00  0.00000000E+00
  0.00000000E+00  0.00000000E+00  0.00000000E+00
  0.00000000E+00  0.00000000E+00  0.00000000E+00
  0.00000000E+00  0.00000000E+00  0.00000000E+00
  0.00000000E+00  0.00000000E+00  0.00000000E+00
  0.00000000E+00  0.00000000E+00  0.00000000E+00
  0.00000000E+00  0.00000000E+00  0.00000000E+00
  0.00000000E+00  0.00000000E+00  0.00000000E+00
  0.00000000E+00  0.00000000E+00  0.00000000E+00
  0.00000000E+00  0.00000000E+00  0.00000000E+00
  0.00000000E+00  0.00000000E+00  0.00000000E+00
  0.00000000E+00  0.00000000E+00  0.00000000E+00
  0.00000000E+00  0.00000000E+00  0.00000000E+00
  0.00000000E+00  0.00000000E+00  0.00000000E+00
  0.00000000E+00  0.00000000E+00  0.00000000E+00
  0.00000000E+00  0.00000000E+00  0.00000000E+00
  0.00000000E+00  0.00000000E+00  0.00000000E+00
  0.00000000E+00  0.00000000E+00  0.00000000E+00
  0.00000000E+00  0.00000000E+00  0.00000000E+00
  0.00000000E+00  0.00000000E+00  0.00000000E+00
  0.00000000E+00  0.00000000E+00  0.00000000E+00
  0.00000000E+00  0.00000000E+00  0.00000000E+00
  0.00000000E+00  0.00000000E+00  0.00000000E+00
  0.00000000E+00  0.00000000E+00  0.00000000E+00
  0.00000000E+00  0.00000000E+00  0.00000000E+00
  0.00000000E+00  0.00000000E+00  0.00000000E+00
  0.00000000E+00  0.00000000E+00  0.00000000E+00
  0.00000000E+00  0.00000000E+00  0.00000000E+00
  0.00000000E+00  0.00000000E+00  0.00000000E+00
  0.00000000E+00  0.00000000E+00  0.00000000E+00
  0.00000000E+00  0.00000000E+00  0.00000000E+00
  0.00000000E+00  0.00000000E+00  0.00000000E+00
  0.00000000E+00  0.00000000E+00  0.00000000E+00
  0.00000000E+00  0.00000000E+00  0.00000000E+00
  0.00000000E+00  0.00000000E+00  0.00000000E+00
  0.00000000E+00  0.00000000E+00  0.00000000E+00
  0.00000000E+00  0.00000000E+00  0.00000000E+00
  0.00000000E+00  0.00000000E+00  0.00000000E+00
  0.00000000E+00  0.00000000E+00  0.00000000E+00
  0.00000000E+00  0.00000000E+00  0.00000000E+00
  0.00000000E+00  0.00000000E+00  0.00000000E+00
  0.00000000E+00  0.00000000E+00  0.00000000E+00
  0.00000000E+00  0.00000000E+00  0.00000000E+00
  0.00000000E+00  0.00000000E+00  0.00000000E+00
  0.00000000E+00  0.00000000E+00  0.00000000E+00
  0.00000000E+00  0.00000000E+00  0.00000000E+00
  0.00000000E+00  0.00000000E+00  0.00000000E+00
  0.00000000E+00  0.00000000E+00  0.00000000E+00
  0.00000000E+00  0.00000000E+00  0.00000000E+00
  0.00000000E+00  0.00000000E+00  0.00000000E+00
  0.00000000E+00  0.00000000E+00  0.00000000E+00
  0.00000000E+00  0.00000000E+00  0.00000000E+00
  0.00000000E+00  0.00000000E+00  0.00000000E+00
  0.00000000E+00  0.00000000E+00  0.00000000E+00
  0.00000000E+00  0.00000000E+00  0.00000000E+00
