Ca72 Zn36 N72                           
   1.00000000000000     
    10.7221290000000007    0.0000000000000000    0.0000000000000000
     0.0000000000000000   10.7221290000000007    0.0000000000000000
     0.0000000000000000    0.0000000000000000   24.9777859999999983
   Zn   Ca   N 
    35    72    72
Direct
  0.3327812745945664  0.9995406570998284  0.9999999914774804
  0.3336448088939008  0.9978754106267047  0.4999999291950559
  0.3342419452013914  0.3342402998488367  0.9999999909730946
  0.3342348057796798  0.6657248605859394  0.0000000069863404
  0.3342805680107404  0.6658098709621498  0.4999999989206287
  0.6671169044729908  0.9995925580699137  0.9999999554380992
  0.6669997686082567  0.0009020368155817  0.5000000081383291
  0.6657259995879272  0.3342335248503332  0.0000000071073814
  0.6658130095032888  0.3342781082257460  0.4999999976501712
  0.6657266684748180  0.6657252348050733  0.0000000279704437
  0.6657104158912901  0.6657090473959570  0.5000000243126692
  0.0002693953731452  0.0011867623466912  0.9999999195272551
  0.9992939009237674  0.9992822014682048  0.4999999934641721
  0.9995454447700496  0.3327729908232939  0.9999999974998062
  0.9978975148531788  0.3336228026634771  0.4999999217833846
  0.9995984202892743  0.6671088997351475  0.9999999574029204
  0.0009134790015040  0.6669946761783478  0.5000000202058601
  0.1656103748019078  0.1656066786657959  0.2497797071573729
  0.1656103293348039  0.1656066319913094  0.7502204412848812
  0.1655183442957266  0.5015321826175523  0.2492631184363390
  0.1655185444072131  0.5015323152764068  0.7507369180170969
  0.1657263050940685  0.8342605814187749  0.2500210563064300
  0.1657263809376062  0.8342605845536397  0.7499789217936410
  0.5015379368068196  0.1655107017573982  0.2492636872150413
  0.5015380652565540  0.1655109407292059  0.7507363411542869
  0.5016514986557468  0.5016423481799990  0.2495554641785063
  0.5016511172082616  0.5016416698888975  0.7504453005381819
  0.4998171236773459  0.8328591968772514  0.2500406042730887
  0.4998174589907549  0.8328592950558189  0.7499591871745466
  0.8342617314975840  0.1657251782352063  0.2500222765508369
  0.8342617258149403  0.1657252518970438  0.7499777020672482
  0.8328616765537546  0.4998087375944351  0.2500405077306169
  0.8328617698912097  0.4998090841088327  0.7499592778948454
  0.8342653545551570  0.8342636314657454  0.2500200072520826
  0.8342654862306134  0.8342637640305384  0.7499799080930316
  0.9999409929154979  0.3329055200892768  0.1687866204065287
  0.0012384415821174  0.3334991198371853  0.6685460855672574
  0.9993856761193811  0.6666360037058041  0.1686969082476324
  0.0008854115136998  0.6662193053667309  0.6684242146866950
  0.9998682736491773  0.9998733051165019  0.1687926208781292
  0.0007024580144943  0.0006954301897224  0.6682489153104996
  0.3339826194463456  0.3339767033191521  0.6719031586458328
  0.3335086852049827  0.3335017199714727  0.1687881450663156
  0.3332859320552615  0.6663960244890106  0.1687847239480789
  0.3335750836535993  0.6662820937092917  0.6687107375662436
  0.3329156867927168  0.9999283811235173  0.1687854540280824
  0.3335075602296627  0.0012302378754399  0.6685456669536833
  0.6664011484493244  0.3332806525979208  0.1687855787333348
  0.6662899948356511  0.3335667986047781  0.6687104971449713
  0.6664570761821906  0.6664501850502660  0.1688095046615317
  0.6662137949170486  0.6662058828808384  0.6684633123525572
  0.6666453366575098  0.9993744513989782  0.1686981382604387
  0.6662280862545202  0.0008751866860166  0.6684238951058887
  0.0007022586106800  0.0006952309293595  0.3317510678686730
  0.9998683994375810  0.9998734401894041  0.8312073570701983
  0.0012380807831320  0.3334989962773918  0.3314539681023732
  0.9999415597554844  0.3329057067683081  0.8312133710581975
  0.0008850820917417  0.6662191501488550  0.3315757356648135
  0.9993861677045501  0.6666362244602340  0.8313030851705747
  0.3335074384516687  0.0012298626403080  0.3314543858556434
  0.3329158646564636  0.9999289771095476  0.8312145361436336
  0.3339825551052442  0.3339766347283231  0.3280970846473394
  0.3335088352685318  0.3335018808195827  0.8312120525259346
  0.3335749167710560  0.6662818336877692  0.3312892755108194
  0.3332862032318502  0.6663961917575278  0.8312152598352682
  0.6662279364658303  0.0008748400700327  0.3315760576936526
  0.6666455486709637  0.9993749668870677  0.8313018557939316
  0.6662897261906409  0.3335666375323498  0.3312895061366774
  0.6664013172194529  0.3332809227947422  0.8312144170882547
  0.6662137290509449  0.6662058071655608  0.3315366324157267
  0.6664570906736103  0.6664502148856002  0.8311903227099435
  0.1717281029194666  0.1717222764228126  0.4194975498114957
  0.1664515534514450  0.1664467356104922  0.9187994877287693
  0.1719712537374889  0.4955568822361158  0.4193890022701368
  0.1665006651709433  0.4996060628970653  0.9188262823568749
  0.1665359031376141  0.8335356146903692  0.4188579667416121
  0.1663467451421567  0.8332967884270346  0.9187939135126015
  0.4955639697662164  0.1719647451918291  0.4193885171629859
  0.4996156255832531  0.1664911318156044  0.9188257293039968
  0.4956682264091299  0.4956614986131953  0.4193542618612724
  0.4998896132615371  0.4998814441307786  0.9187611119905057
  0.5001987353782482  0.8332736680780428  0.4187800369327164
  0.4995815272591813  0.8329945716290013  0.9187413826524988
  0.8335431063446350  0.1665280733139696  0.4188584579086552
  0.8332676610706571  0.1663732148649757  0.9187715284427256
  0.8332833330713285  0.5001871466330599  0.4187795569502413
  0.8330042736599879  0.4995720789260645  0.9187412441563581
  0.8334671199410408  0.8334604959837435  0.4188845136588313
  0.8333687143311508  0.8333635309777847  0.9188551037434536
  0.1664514201136242  0.1664465983641463  0.0812004900036172
  0.1717286378249270  0.1717228106996558  0.5805025681022542
  0.1665002223002645  0.4996059263072254  0.0811736977580821
  0.1719714491239159  0.4955570592574290  0.5806110612649960
  0.1663466424119733  0.8332967103581979  0.0812060384414508
  0.1665359305172416  0.8335357713937412  0.5811419903654951
  0.4996154952583751  0.1664906725664963  0.0811742526423558
  0.4955641451444777  0.1719649492677604  0.5806115478606841
  0.4998892938817221  0.4998811138088399  0.0812389464322081
  0.4956682067252416  0.4956614773542043  0.5806457680975683
  0.4995814245118666  0.8329942687506673  0.0812585378528254
  0.5001986114370780  0.8332741830565880  0.5812199193564922
  0.8332675876844746  0.1663731089836205  0.0812284239203009
  0.8335432574373485  0.1665281041378037  0.5811415022199711
  0.8330039874128587  0.4995719686515230  0.0812586788006655
  0.8332838376741307  0.5001870121150915  0.5812204005746011
  0.8333685857154762  0.8333633982180473  0.0811448457725774
  0.8334673142456879  0.8334606876755757  0.5811154048131471
  0.3330165572458412  0.9995582388055624  0.0728519551243991
  0.3334878229365827  0.9994227432900971  0.5727518436144834
  0.3334079928906561  0.3334005153857191  0.0728439849359077
  0.3333827331875554  0.3333745386816176  0.5818476468406146
  0.3334246697755532  0.6663585749226257  0.0728613226776318
  0.3336445703728046  0.6664268550230688  0.5727755758771806
  0.6665843651058694  0.9995568792635439  0.0728476685145480
  0.6666780477663252  0.0001603095270895  0.5728134740670470
  0.6663619536459535  0.3334211838623062  0.0728615772734997
  0.6664346471110036  0.3336370101598547  0.5727755405511772
  0.6663152343112486  0.6663079657567295  0.0728828752249129
  0.6664321173023211  0.6664244158206927  0.5728125130305273
  0.9998793214146673  0.9999751497873390  0.0728432796231218
  0.9997826864971415  0.9997738802789300  0.5727646543390819
  0.9995672339170198  0.3330186954218135  0.0728530480658094
  0.9994325063686418  0.3334792800557196  0.5727518852715363
  0.9995661298303062  0.6665863290886804  0.0728468114535517
  0.0001688932937043  0.6666704308290008  0.5728135094152833
  0.3334877713994260  0.9994224074929505  0.4272481780297710
  0.3330166315952212  0.9995584407595786  0.9271480063225326
  0.3333822935696276  0.3333740944045260  0.4181528731637272
  0.3334081982478381  0.3334007280389812  0.9271560045596914
  0.3336443907115054  0.6664267633562275  0.4272243903816886
  0.3334247555658152  0.6663588457905263  0.9271386647081030
  0.6666780112370958  0.0001600796426047  0.4271864500047826
  0.6665844424235132  0.9995571347816039  0.9271522347642147
  0.6664345628280373  0.3336368284149387  0.4272244228417961
  0.6663622155652362  0.3334212799909722  0.9271384124184152
  0.6664320285035146  0.6664243259039750  0.4271874822192174
  0.6663155558926945  0.6663082935803502  0.9271171395275601
  0.9997824903980685  0.9997736799804642  0.4272353000490483
  0.9998794275038776  0.9999752654805292  0.9271566661141790
  0.9994321780639481  0.3334792278914520  0.4272481454081358
  0.9995674276415585  0.3330187723682627  0.9271469125218417
  0.0001686648226453  0.6666703975960004  0.4271864031793200
  0.9995663750975297  0.6665864080636865  0.9271530860258537
  0.1656881652653155  0.1656808842517705  0.3223498383192975
  0.1664948472421202  0.1664863446054525  0.8232069798242563
  0.1657228646378357  0.5019109713029763  0.3218760224141732
  0.1663891781079272  0.5000280177842882  0.8236151161206422
  0.1667063438516863  0.8338325029622737  0.3228776446109762
  0.1661686257255042  0.8334918725173495  0.8229450983071800
  0.5019190313160067  0.1657148941891649  0.3218763728481804
  0.5000375764417839  0.1663806567423762  0.8236150119361554
  0.5019057454555096  0.5018979593515311  0.3220926899171417
  0.5000413830298882  0.5000329308614937  0.8233402476250617
  0.4996988784014036  0.8335356388542010  0.3228838510441108
  0.4997558386795191  0.8331278339475858  0.8229027785377241
  0.8338405801345417  0.1666979620565030  0.3228785212871728
  0.8334957290086535  0.1661648473973969  0.8229405957540052
  0.8335437828235044  0.4996896217800497  0.3228838590439054
  0.8331361866624363  0.4997463862521698  0.8229029783029418
  0.8336176056705966  0.8336097467070331  0.3228293128792501
  0.8334378689454738  0.8334295179447579  0.8229695179240508
  0.1664945457616653  0.1664860282238365  0.1767932273364750
  0.1656883351952061  0.1656810593088665  0.6776504249898565
  0.1663887123536583  0.5000277824239205  0.1763848795220255
  0.1657230375370418  0.5019112687031253  0.6781239855367716
  0.1661683942511871  0.8334916272144284  0.1770548592714221
  0.1667065603322726  0.8338326583437095  0.6771223351181206
  0.5000373534938660  0.1663801588671561  0.1763849906447206
  0.5019193268228435  0.1657150820309425  0.6781236380490512
  0.5000415818714359  0.5000331532640558  0.1766597974570487
  0.5019054201209627  0.5018975950671063  0.6779073441863019
  0.4997555382010077  0.8331272579674476  0.1770971682193831
  0.4996990534703301  0.8335359301840981  0.6771160896817605
  0.8334954980633000  0.1661645991476846  0.1770593630879702
  0.8338407334146680  0.1666981853282579  0.6771214583990997
  0.8331356394437819  0.4997460668822669  0.1770969732182763
  0.8335440643798151  0.4996898076418859  0.6771160867829664
  0.8334375736990225  0.8334292118387197  0.1770303877857273
  0.8336178002392316  0.8336099494386602  0.6771705703849804
 
  0.00000000E+00  0.00000000E+00  0.00000000E+00
  0.00000000E+00  0.00000000E+00  0.00000000E+00
  0.00000000E+00  0.00000000E+00  0.00000000E+00
  0.00000000E+00  0.00000000E+00  0.00000000E+00
  0.00000000E+00  0.00000000E+00  0.00000000E+00
  0.00000000E+00  0.00000000E+00  0.00000000E+00
  0.00000000E+00  0.00000000E+00  0.00000000E+00
  0.00000000E+00  0.00000000E+00  0.00000000E+00
  0.00000000E+00  0.00000000E+00  0.00000000E+00
  0.00000000E+00  0.00000000E+00  0.00000000E+00
  0.00000000E+00  0.00000000E+00  0.00000000E+00
  0.00000000E+00  0.00000000E+00  0.00000000E+00
  0.00000000E+00  0.00000000E+00  0.00000000E+00
  0.00000000E+00  0.00000000E+00  0.00000000E+00
  0.00000000E+00  0.00000000E+00  0.00000000E+00
  0.00000000E+00  0.00000000E+00  0.00000000E+00
  0.00000000E+00  0.00000000E+00  0.00000000E+00
  0.00000000E+00  0.00000000E+00  0.00000000E+00
  0.00000000E+00  0.00000000E+00  0.00000000E+00
  0.00000000E+00  0.00000000E+00  0.00000000E+00
  0.00000000E+00  0.00000000E+00  0.00000000E+00
  0.00000000E+00  0.00000000E+00  0.00000000E+00
  0.00000000E+00  0.00000000E+00  0.00000000E+00
  0.00000000E+00  0.00000000E+00  0.00000000E+00
  0.00000000E+00  0.00000000E+00  0.00000000E+00
  0.00000000E+00  0.00000000E+00  0.00000000E+00
  0.00000000E+00  0.00000000E+00  0.00000000E+00
  0.00000000E+00  0.00000000E+00  0.00000000E+00
  0.00000000E+00  0.00000000E+00  0.00000000E+00
  0.00000000E+00  0.00000000E+00  0.00000000E+00
  0.00000000E+00  0.00000000E+00  0.00000000E+00
  0.00000000E+00  0.00000000E+00  0.00000000E+00
  0.00000000E+00  0.00000000E+00  0.00000000E+00
  0.00000000E+00  0.00000000E+00  0.00000000E+00
  0.00000000E+00  0.00000000E+00  0.00000000E+00
  0.00000000E+00  0.00000000E+00  0.00000000E+00
  0.00000000E+00  0.00000000E+00  0.00000000E+00
  0.00000000E+00  0.00000000E+00  0.00000000E+00
  0.00000000E+00  0.00000000E+00  0.00000000E+00
  0.00000000E+00  0.00000000E+00  0.00000000E+00
  0.00000000E+00  0.00000000E+00  0.00000000E+00
  0.00000000E+00  0.00000000E+00  0.00000000E+00
  0.00000000E+00  0.00000000E+00  0.00000000E+00
  0.00000000E+00  0.00000000E+00  0.00000000E+00
  0.00000000E+00  0.00000000E+00  0.00000000E+00
  0.00000000E+00  0.00000000E+00  0.00000000E+00
  0.00000000E+00  0.00000000E+00  0.00000000E+00
  0.00000000E+00  0.00000000E+00  0.00000000E+00
  0.00000000E+00  0.00000000E+00  0.00000000E+00
  0.00000000E+00  0.00000000E+00  0.00000000E+00
  0.00000000E+00  0.00000000E+00  0.00000000E+00
  0.00000000E+00  0.00000000E+00  0.00000000E+00
  0.00000000E+00  0.00000000E+00  0.00000000E+00
  0.00000000E+00  0.00000000E+00  0.00000000E+00
  0.00000000E+00  0.00000000E+00  0.00000000E+00
  0.00000000E+00  0.00000000E+00  0.00000000E+00
  0.00000000E+00  0.00000000E+00  0.00000000E+00
  0.00000000E+00  0.00000000E+00  0.00000000E+00
  0.00000000E+00  0.00000000E+00  0.00000000E+00
  0.00000000E+00  0.00000000E+00  0.00000000E+00
  0.00000000E+00  0.00000000E+00  0.00000000E+00
  0.00000000E+00  0.00000000E+00  0.00000000E+00
  0.00000000E+00  0.00000000E+00  0.00000000E+00
  0.00000000E+00  0.00000000E+00  0.00000000E+00
  0.00000000E+00  0.00000000E+00  0.00000000E+00
  0.00000000E+00  0.00000000E+00  0.00000000E+00
  0.00000000E+00  0.00000000E+00  0.00000000E+00
  0.00000000E+00  0.00000000E+00  0.00000000E+00
  0.00000000E+00  0.00000000E+00  0.00000000E+00
  0.00000000E+00  0.00000000E+00  0.00000000E+00
  0.00000000E+00  0.00000000E+00  0.00000000E+00
  0.00000000E+00  0.00000000E+00  0.00000000E+00
  0.00000000E+00  0.00000000E+00  0.00000000E+00
  0.00000000E+00  0.00000000E+00  0.00000000E+00
  0.00000000E+00  0.00000000E+00  0.00000000E+00
  0.00000000E+00  0.00000000E+00  0.00000000E+00
  0.00000000E+00  0.00000000E+00  0.00000000E+00
  0.00000000E+00  0.00000000E+00  0.00000000E+00
  0.00000000E+00  0.00000000E+00  0.00000000E+00
  0.00000000E+00  0.00000000E+00  0.00000000E+00
  0.00000000E+00  0.00000000E+00  0.00000000E+00
  0.00000000E+00  0.00000000E+00  0.00000000E+00
  0.00000000E+00  0.00000000E+00  0.00000000E+00
  0.00000000E+00  0.00000000E+00  0.00000000E+00
  0.00000000E+00  0.00000000E+00  0.00000000E+00
  0.00000000E+00  0.00000000E+00  0.00000000E+00
  0.00000000E+00  0.00000000E+00  0.00000000E+00
  0.00000000E+00  0.00000000E+00  0.00000000E+00
  0.00000000E+00  0.00000000E+00  0.00000000E+00
  0.00000000E+00  0.00000000E+00  0.00000000E+00
  0.00000000E+00  0.00000000E+00  0.00000000E+00
  0.00000000E+00  0.00000000E+00  0.00000000E+00
  0.00000000E+00  0.00000000E+00  0.00000000E+00
  0.00000000E+00  0.00000000E+00  0.00000000E+00
  0.00000000E+00  0.00000000E+00  0.00000000E+00
  0.00000000E+00  0.00000000E+00  0.00000000E+00
  0.00000000E+00  0.00000000E+00  0.00000000E+00
  0.00000000E+00  0.00000000E+00  0.00000000E+00
  0.00000000E+00  0.00000000E+00  0.00000000E+00
  0.00000000E+00  0.00000000E+00  0.00000000E+00
  0.00000000E+00  0.00000000E+00  0.00000000E+00
  0.00000000E+00  0.00000000E+00  0.00000000E+00
  0.00000000E+00  0.00000000E+00  0.00000000E+00
  0.00000000E+00  0.00000000E+00  0.00000000E+00
  0.00000000E+00  0.00000000E+00  0.00000000E+00
  0.00000000E+00  0.00000000E+00  0.00000000E+00
  0.00000000E+00  0.00000000E+00  0.00000000E+00
  0.00000000E+00  0.00000000E+00  0.00000000E+00
  0.00000000E+00  0.00000000E+00  0.00000000E+00
  0.00000000E+00  0.00000000E+00  0.00000000E+00
  0.00000000E+00  0.00000000E+00  0.00000000E+00
  0.00000000E+00  0.00000000E+00  0.00000000E+00
  0.00000000E+00  0.00000000E+00  0.00000000E+00
  0.00000000E+00  0.00000000E+00  0.00000000E+00
  0.00000000E+00  0.00000000E+00  0.00000000E+00
  0.00000000E+00  0.00000000E+00  0.00000000E+00
  0.00000000E+00  0.00000000E+00  0.00000000E+00
  0.00000000E+00  0.00000000E+00  0.00000000E+00
  0.00000000E+00  0.00000000E+00  0.00000000E+00
  0.00000000E+00  0.00000000E+00  0.00000000E+00
  0.00000000E+00  0.00000000E+00  0.00000000E+00
  0.00000000E+00  0.00000000E+00  0.00000000E+00
  0.00000000E+00  0.00000000E+00  0.00000000E+00
  0.00000000E+00  0.00000000E+00  0.00000000E+00
  0.00000000E+00  0.00000000E+00  0.00000000E+00
  0.00000000E+00  0.00000000E+00  0.00000000E+00
  0.00000000E+00  0.00000000E+00  0.00000000E+00
  0.00000000E+00  0.00000000E+00  0.00000000E+00
  0.00000000E+00  0.00000000E+00  0.00000000E+00
  0.00000000E+00  0.00000000E+00  0.00000000E+00
  0.00000000E+00  0.00000000E+00  0.00000000E+00
  0.00000000E+00  0.00000000E+00  0.00000000E+00
  0.00000000E+00  0.00000000E+00  0.00000000E+00
  0.00000000E+00  0.00000000E+00  0.00000000E+00
  0.00000000E+00  0.00000000E+00  0.00000000E+00
  0.00000000E+00  0.00000000E+00  0.00000000E+00
  0.00000000E+00  0.00000000E+00  0.00000000E+00
  0.00000000E+00  0.00000000E+00  0.00000000E+00
  0.00000000E+00  0.00000000E+00  0.00000000E+00
  0.00000000E+00  0.00000000E+00  0.00000000E+00
  0.00000000E+00  0.00000000E+00  0.00000000E+00
  0.00000000E+00  0.00000000E+00  0.00000000E+00
  0.00000000E+00  0.00000000E+00  0.00000000E+00
  0.00000000E+00  0.00000000E+00  0.00000000E+00
  0.00000000E+00  0.00000000E+00  0.00000000E+00
  0.00000000E+00  0.00000000E+00  0.00000000E+00
  0.00000000E+00  0.00000000E+00  0.00000000E+00
  0.00000000E+00  0.00000000E+00  0.00000000E+00
  0.00000000E+00  0.00000000E+00  0.00000000E+00
  0.00000000E+00  0.00000000E+00  0.00000000E+00
  0.00000000E+00  0.00000000E+00  0.00000000E+00
  0.00000000E+00  0.00000000E+00  0.00000000E+00
  0.00000000E+00  0.00000000E+00  0.00000000E+00
  0.00000000E+00  0.00000000E+00  0.00000000E+00
  0.00000000E+00  0.00000000E+00  0.00000000E+00
  0.00000000E+00  0.00000000E+00  0.00000000E+00
  0.00000000E+00  0.00000000E+00  0.00000000E+00
  0.00000000E+00  0.00000000E+00  0.00000000E+00
  0.00000000E+00  0.00000000E+00  0.00000000E+00
  0.00000000E+00  0.00000000E+00  0.00000000E+00
  0.00000000E+00  0.00000000E+00  0.00000000E+00
  0.00000000E+00  0.00000000E+00  0.00000000E+00
  0.00000000E+00  0.00000000E+00  0.00000000E+00
  0.00000000E+00  0.00000000E+00  0.00000000E+00
  0.00000000E+00  0.00000000E+00  0.00000000E+00
  0.00000000E+00  0.00000000E+00  0.00000000E+00
  0.00000000E+00  0.00000000E+00  0.00000000E+00
  0.00000000E+00  0.00000000E+00  0.00000000E+00
  0.00000000E+00  0.00000000E+00  0.00000000E+00
  0.00000000E+00  0.00000000E+00  0.00000000E+00
  0.00000000E+00  0.00000000E+00  0.00000000E+00
  0.00000000E+00  0.00000000E+00  0.00000000E+00
  0.00000000E+00  0.00000000E+00  0.00000000E+00
  0.00000000E+00  0.00000000E+00  0.00000000E+00
  0.00000000E+00  0.00000000E+00  0.00000000E+00
  0.00000000E+00  0.00000000E+00  0.00000000E+00
  0.00000000E+00  0.00000000E+00  0.00000000E+00
  0.00000000E+00  0.00000000E+00  0.00000000E+00
  0.00000000E+00  0.00000000E+00  0.00000000E+00
