Sr72 Zn36 N72                           
   1.00000000000000     
    11.5533079999999995    0.0000000000000000    0.0000000000000000
     0.0000000000000000   11.5533079999999995    0.0000000000000000
    -0.0000010000000000    0.0000000000000000   25.5426430000000018
   Sr   Zn   N 
    71    36    72
Direct
  0.0001062970448018  0.3333395761390605  0.1708376129592750
  0.0050373280292249  0.3333378044525901  0.6722938962612801
  0.9999618719093419  0.6667168455114876  0.1708582637259042
  0.9986522280884387  0.6680037903551082  0.6704165387730825
  0.9999618627094478  0.9999624890209660  0.1708582856087091
  0.9986585563675732  0.9986583353374385  0.6704243807466952
  0.3333392154291133  0.3333397476662725  0.1704496213938640
  0.3333389562138933  0.6665718053859848  0.1708376191196592
  0.3333383009349546  0.6616151465803384  0.6722827678356680
  0.3333389543636613  0.0001069094065969  0.1708375609526342
  0.3333380504250698  0.0050372024822636  0.6722940780164777
  0.6665711937846126  0.3333395899731002  0.1708375671194702
  0.6616152907570978  0.3333380301158968  0.6722829486141677
  0.6667162647656539  0.6667168871121589  0.1708581098986528
  0.6680141810763445  0.6680139351095278  0.6704114760497575
  0.6667162618633853  0.9999624543161687  0.1708581250492216
  0.6680078331125614  0.9986482581082825  0.6704190463768214
  0.9999581359472671  0.9999587452793008  0.3290718597978000
  0.0007863002784703  0.0007853633886157  0.8286865586011558
  0.0001968814773434  0.3333396481048538  0.3295067168577361
  0.0006877535902206  0.3333378202242017  0.8291337044757370
  0.9999582650774244  0.6667202223214517  0.3290717486038091
  0.0007794338250378  0.6658757490290910  0.8286950575784076
  0.3333390593846985  0.0001974989272995  0.3295067551994961
  0.3333377448000405  0.0006878267135306  0.8291335169026723
  0.3333388978520517  0.3333392860507232  0.3259546680153491
  0.3333378830304667  0.3333380130840240  0.8243825287243212
  0.3333390639705840  0.6664812621102527  0.3295067558723801
  0.3333380043087359  0.6659662823434260  0.8291456626578437
  0.6667196217790305  0.9999588611947274  0.3290718692314201
  0.6658804777133156  0.0007747218184591  0.8286924262478408
  0.6664806335154623  0.3333396514138300  0.3295067995559151
  0.6659661580822842  0.3333380602712879  0.8291455158797518
  0.6667195044743508  0.6667201127835654  0.3290717541762618
  0.6658873675703418  0.6658864751404110  0.8287006152222389
  0.1672535493003267  0.1672540604118211  0.4207750462325279
  0.1678761867846887  0.1678768838545963  0.9206508840067258
  0.1672538842481828  0.4994245255504168  0.4207752361877581
  0.1678750283124870  0.4987999766450670  0.9206524261882265
  0.1667690377943742  0.8333393618389948  0.4214831291285961
  0.1665632010672340  0.8333367716874989  0.9208510217066390
  0.4994241004743998  0.1672543126521617  0.4207752261062723
  0.4988001246423224  0.1678748934536642  0.9206522857617330
  0.4994237664670820  0.4994242737140766  0.4207754148119633
  0.4988012679845113  0.4988019727313002  0.9206538360026286
  0.4999083276436238  0.8333393628148613  0.4214830172582182
  0.5001105464546995  0.8333368427605663  0.9208529965588994
  0.8333388222658868  0.1667695761245156  0.4214831422731464
  0.8333360671559475  0.1665638858077827  0.9208510424856655
  0.8333388219000000  0.4999088645900684  0.4214830005633630
  0.8333361367582697  0.5001112349792010  0.9208529881181278
  0.8333386882155480  0.8333392237988164  0.4211312121784516
  0.8333402132288583  0.8333388710129839  0.9210014340408677
  0.1667275572918356  0.1667283237330324  0.0786342767175228
  0.1736945960584038  0.1736949188642853  0.5827596169718632
  0.1667266759284729  0.4999501309885375  0.0786339136730874
  0.1736937477748484  0.4929817623522865  0.5827586293871931
  0.1666460660341684  0.8333398873323148  0.0790224093698129
  0.1679528092482769  0.8333367976110111  0.5798487645970312
  0.4999495209246092  0.1667273094393451  0.0786336811739190
  0.4929822255485590  0.1736932921591219  0.5827590177803472
  0.4999503824820621  0.4999511555511376  0.0786333108050599
  0.4929830713543168  0.4929833786920170  0.5827580103442713
  0.5000299827220687  0.8333398771037750  0.0790209714795367
  0.4987223124506315  0.8333368610545691  0.5798475972114403
  0.8333393157315854  0.1666469178912209  0.0790222549578132
  0.8333361098975658  0.1679531499163787  0.5798487907138750
  0.8333393219562595  0.5000308410712293  0.0790211280311439
  0.8333361650065854  0.4987226518323240  0.5798475994918277
  0.8333392607578105  0.8333397881162909  0.0786916611435586
  0.8333391424080219  0.8333381110833358  0.5780621196137332
  0.3333058797765958  0.9989838053894715  0.9999857659292317
  0.3333351257455064  0.0002186693824271  0.5011810724509331
  0.3333406924356197  0.3333440047879890  0.9998228327077143
  0.3333363297715337  0.3333362708650967  0.4931036339501134
  0.3333059078097733  0.6676894204412136  0.9999878803616369
  0.3333351175599901  0.6664508678493775  0.5011803180245948
  0.6660044863008707  0.0006709614854827  0.9998137146370212
  0.6657692154138033  0.0009060130625826  0.4997477715344232
  0.6676895413125479  0.3333155227611897  0.9999878979303247
  0.6664510552180687  0.3333350276183324  0.5011803000245152
  0.6660018597296258  0.6660021844530135  0.9998148541230947
  0.6657678788373573  0.6657681982746553  0.4997463318481934
  0.0006686037997881  0.0006689223326148  0.9998130953418638
  0.0009047996390024  0.0009051205421429  0.4997486049285911
  0.9989834813283096  0.3333151887937689  0.9999857359206885
  0.0002188605422191  0.3333350325140643  0.5011810949108053
  0.0006712205428485  0.6660042303553197  0.9998142864243960
  0.0009061447865477  0.6657690867441488  0.4997471167805045
  0.1656510386725571  0.1656513400217747  0.2491713017509838
  0.1652918498375797  0.1652921840176376  0.7505327268433319
  0.1656495973170422  0.5010262881883918  0.2491715083568238
  0.1652927136653162  0.5013856878915846  0.7505349534085468
  0.1676991423901697  0.8333429002399129  0.2501356752242430
  0.1676295132617298  0.8330331734747745  0.7500553433950188
  0.5010258433498791  0.1656500385955226  0.2491714690158133
  0.5013859879699041  0.1652924325142706  0.7505351232271167
  0.5010272716370565  0.5010275796595565  0.2491716613665247
  0.5013850103624833  0.5013853207801802  0.7505372416117098
  0.4989745959695355  0.8333431237944140  0.2501352706089648
  0.4990414753767283  0.8330385536991329  0.7500550993505968
  0.8333393223239085  0.1676993026734905  0.2501356724654187
  0.8330414327993623  0.1676313282359629  0.7500554765519070
  0.8333395672386104  0.4989747242721378  0.2501352810952753
  0.8330459651983020  0.4990403622529058  0.7500555176311821
  0.8333418349533730  0.8333442365808352  0.2498278275348653
  0.8333392583789916  0.8333184121626260  0.7508320476969956
  0.3333360455771128  0.9995706737775620  0.0712933085123879
  0.3333385383151253  0.0008082472771846  0.5724184627466684
  0.3333394093074133  0.3333403053847945  0.0711815533865234
  0.3333391613468777  0.3333395459138941  0.5627286766319415
  0.3333360091770174  0.6671095337568218  0.0712947293219983
  0.3333385644883222  0.6658687003300301  0.5724164167226462
  0.6665947892357309  0.0000850295398891  0.0711550990112997
  0.6670480257657303  0.9996276891062550  0.5707551560067259
  0.6671088621430954  0.3333373602981808  0.0712947249897269
  0.6658683126948901  0.3333392445593191  0.5724163191565452
  0.6665946221454533  0.6665953780390481  0.0711557854552822
  0.6670481422512182  0.6670487604488358  0.5707528695527913
  0.0000841569183336  0.0000849077597920  0.0711547967810091
  0.9996278705496096  0.9996284931837565  0.5707566053322637
  0.9995699898342849  0.3333373479065145  0.0712933055212872
  0.0008078429040808  0.3333392226585303  0.5724185741343533
  0.0000843151645711  0.6665955024715871  0.0711555275567335
  0.9996277566758636  0.6670479521862660  0.5707542370800311
  0.3333385741662838  0.0000066568298323  0.4296317810576227
  0.3333358407667291  0.9994110743544198  0.9287403222040851
  0.3333386993956040  0.3333391002871124  0.4217332442225086
  0.3333392420639854  0.3333401151434359  0.9285463716548463
  0.3333385726719271  0.6666727469438243  0.4296317062419419
  0.3333358460756983  0.6672668272158191  0.9287438273610178
  0.6665338063100421  0.0001447023462902  0.4282927549566580
  0.6665427066334075  0.0001338981098655  0.9285454252009870
  0.6666720653418707  0.3333391129513217  0.4296316043175921
  0.6672662216960177  0.3333372875335954  0.9287438317260595
  0.6665337862152256  0.6665343524687657  0.4282918475646227
  0.6665437566556207  0.6665446060981068  0.9285475754839823
  0.0001440407196824  0.0001446088682044  0.4282932770225969
  0.0001350267221483  0.0001358647195175  0.9285440543819021
  0.0000059697492247  0.3333391166001789  0.4296318988196504
  0.9994104573802147  0.3333372413069497  0.9287403135793753
  0.0001440627657843  0.6665344471379271  0.4282923437432515
  0.0001339444627604  0.6665426630839590  0.9285463066034936
  0.1653893769383856  0.1653899139743942  0.3203269901124415
  0.1675858191410029  0.1675860465202206  0.8220257501968931
  0.1653893268322975  0.5012885374544354  0.3203272090074165
  0.1675849999487866  0.4990836165612933  0.8220274327120691
  0.1675213788151666  0.8333397437363388  0.3214400955988310
  0.1667520139011955  0.8333057452917743  0.8213891329963943
  0.5012879984293122  0.1653898616713008  0.3203271705198532
  0.4990844847108988  0.1675841449819728  0.8220274377699113
  0.5012880555263024  0.5012885951729160  0.3203273838675003
  0.4990854243285057  0.4990856467685489  0.8220290647137105
  0.4991574587210152  0.8333397591851224  0.3214397043791877
  0.4999217661670627  0.8333066059561460  0.8213889973285760
  0.8333388409219395  0.1675220396068582  0.3214400956496775
  0.8333062847565529  0.1667505995428158  0.8213890572018698
  0.8333388664274608  0.4991581102981115  0.3214397061411560
  0.8333070469047570  0.4999202839886365  0.8213893015121982
  0.8333392107050059  0.8333400631548571  0.3210725250294928
  0.8333414935038732  0.8333271126223991  0.8218372750077449
  0.1666539054003238  0.1666545664154242  0.1778938045556302
  0.1527466263080086  0.1527467738457133  0.6805028471494126
  0.1666538575971686  0.5000246934227377  0.1778939101442703
  0.1527460658703816  0.5139222748525683  0.6805038092510856
  0.1666589515954300  0.8333399634877594  0.1787569965627895
  0.1675706018438632  0.8333067618763650  0.6790323175219086
  0.5000241150607820  0.1666544373190177  0.1778938430378787
  0.5139239972662750  0.1527443431490099  0.6805038506199068
  0.5000241692841456  0.5000248321135956  0.1778939423722932
  0.5139246748637589  0.5139248254618636  0.6805047807059736
  0.5000202365650779  0.8333399750623869  0.1787563509676815
  0.4991038982808718  0.8333075758490125  0.6790317802989918
  0.8333390763487216  0.1666596281565020  0.1787569592540308
  0.8333073101285962  0.1675692551293224  0.6790324077542138
  0.8333390980467499  0.5000209119433805  0.1787563901828975
  0.8333080332561948  0.4991024785941391  0.6790319267434484
  0.8333395464130575  0.8333403670996304  0.1784544772553289
  0.8333404658246479  0.8333286199351164  0.6795786316966215
 
  0.00000000E+00  0.00000000E+00  0.00000000E+00
  0.00000000E+00  0.00000000E+00  0.00000000E+00
  0.00000000E+00  0.00000000E+00  0.00000000E+00
  0.00000000E+00  0.00000000E+00  0.00000000E+00
  0.00000000E+00  0.00000000E+00  0.00000000E+00
  0.00000000E+00  0.00000000E+00  0.00000000E+00
  0.00000000E+00  0.00000000E+00  0.00000000E+00
  0.00000000E+00  0.00000000E+00  0.00000000E+00
  0.00000000E+00  0.00000000E+00  0.00000000E+00
  0.00000000E+00  0.00000000E+00  0.00000000E+00
  0.00000000E+00  0.00000000E+00  0.00000000E+00
  0.00000000E+00  0.00000000E+00  0.00000000E+00
  0.00000000E+00  0.00000000E+00  0.00000000E+00
  0.00000000E+00  0.00000000E+00  0.00000000E+00
  0.00000000E+00  0.00000000E+00  0.00000000E+00
  0.00000000E+00  0.00000000E+00  0.00000000E+00
  0.00000000E+00  0.00000000E+00  0.00000000E+00
  0.00000000E+00  0.00000000E+00  0.00000000E+00
  0.00000000E+00  0.00000000E+00  0.00000000E+00
  0.00000000E+00  0.00000000E+00  0.00000000E+00
  0.00000000E+00  0.00000000E+00  0.00000000E+00
  0.00000000E+00  0.00000000E+00  0.00000000E+00
  0.00000000E+00  0.00000000E+00  0.00000000E+00
  0.00000000E+00  0.00000000E+00  0.00000000E+00
  0.00000000E+00  0.00000000E+00  0.00000000E+00
  0.00000000E+00  0.00000000E+00  0.00000000E+00
  0.00000000E+00  0.00000000E+00  0.00000000E+00
  0.00000000E+00  0.00000000E+00  0.00000000E+00
  0.00000000E+00  0.00000000E+00  0.00000000E+00
  0.00000000E+00  0.00000000E+00  0.00000000E+00
  0.00000000E+00  0.00000000E+00  0.00000000E+00
  0.00000000E+00  0.00000000E+00  0.00000000E+00
  0.00000000E+00  0.00000000E+00  0.00000000E+00
  0.00000000E+00  0.00000000E+00  0.00000000E+00
  0.00000000E+00  0.00000000E+00  0.00000000E+00
  0.00000000E+00  0.00000000E+00  0.00000000E+00
  0.00000000E+00  0.00000000E+00  0.00000000E+00
  0.00000000E+00  0.00000000E+00  0.00000000E+00
  0.00000000E+00  0.00000000E+00  0.00000000E+00
  0.00000000E+00  0.00000000E+00  0.00000000E+00
  0.00000000E+00  0.00000000E+00  0.00000000E+00
  0.00000000E+00  0.00000000E+00  0.00000000E+00
  0.00000000E+00  0.00000000E+00  0.00000000E+00
  0.00000000E+00  0.00000000E+00  0.00000000E+00
  0.00000000E+00  0.00000000E+00  0.00000000E+00
  0.00000000E+00  0.00000000E+00  0.00000000E+00
  0.00000000E+00  0.00000000E+00  0.00000000E+00
  0.00000000E+00  0.00000000E+00  0.00000000E+00
  0.00000000E+00  0.00000000E+00  0.00000000E+00
  0.00000000E+00  0.00000000E+00  0.00000000E+00
  0.00000000E+00  0.00000000E+00  0.00000000E+00
  0.00000000E+00  0.00000000E+00  0.00000000E+00
  0.00000000E+00  0.00000000E+00  0.00000000E+00
  0.00000000E+00  0.00000000E+00  0.00000000E+00
  0.00000000E+00  0.00000000E+00  0.00000000E+00
  0.00000000E+00  0.00000000E+00  0.00000000E+00
  0.00000000E+00  0.00000000E+00  0.00000000E+00
  0.00000000E+00  0.00000000E+00  0.00000000E+00
  0.00000000E+00  0.00000000E+00  0.00000000E+00
  0.00000000E+00  0.00000000E+00  0.00000000E+00
  0.00000000E+00  0.00000000E+00  0.00000000E+00
  0.00000000E+00  0.00000000E+00  0.00000000E+00
  0.00000000E+00  0.00000000E+00  0.00000000E+00
  0.00000000E+00  0.00000000E+00  0.00000000E+00
  0.00000000E+00  0.00000000E+00  0.00000000E+00
  0.00000000E+00  0.00000000E+00  0.00000000E+00
  0.00000000E+00  0.00000000E+00  0.00000000E+00
  0.00000000E+00  0.00000000E+00  0.00000000E+00
  0.00000000E+00  0.00000000E+00  0.00000000E+00
  0.00000000E+00  0.00000000E+00  0.00000000E+00
  0.00000000E+00  0.00000000E+00  0.00000000E+00
  0.00000000E+00  0.00000000E+00  0.00000000E+00
  0.00000000E+00  0.00000000E+00  0.00000000E+00
  0.00000000E+00  0.00000000E+00  0.00000000E+00
  0.00000000E+00  0.00000000E+00  0.00000000E+00
  0.00000000E+00  0.00000000E+00  0.00000000E+00
  0.00000000E+00  0.00000000E+00  0.00000000E+00
  0.00000000E+00  0.00000000E+00  0.00000000E+00
  0.00000000E+00  0.00000000E+00  0.00000000E+00
  0.00000000E+00  0.00000000E+00  0.00000000E+00
  0.00000000E+00  0.00000000E+00  0.00000000E+00
  0.00000000E+00  0.00000000E+00  0.00000000E+00
  0.00000000E+00  0.00000000E+00  0.00000000E+00
  0.00000000E+00  0.00000000E+00  0.00000000E+00
  0.00000000E+00  0.00000000E+00  0.00000000E+00
  0.00000000E+00  0.00000000E+00  0.00000000E+00
  0.00000000E+00  0.00000000E+00  0.00000000E+00
  0.00000000E+00  0.00000000E+00  0.00000000E+00
  0.00000000E+00  0.00000000E+00  0.00000000E+00
  0.00000000E+00  0.00000000E+00  0.00000000E+00
  0.00000000E+00  0.00000000E+00  0.00000000E+00
  0.00000000E+00  0.00000000E+00  0.00000000E+00
  0.00000000E+00  0.00000000E+00  0.00000000E+00
  0.00000000E+00  0.00000000E+00  0.00000000E+00
  0.00000000E+00  0.00000000E+00  0.00000000E+00
  0.00000000E+00  0.00000000E+00  0.00000000E+00
  0.00000000E+00  0.00000000E+00  0.00000000E+00
  0.00000000E+00  0.00000000E+00  0.00000000E+00
  0.00000000E+00  0.00000000E+00  0.00000000E+00
  0.00000000E+00  0.00000000E+00  0.00000000E+00
  0.00000000E+00  0.00000000E+00  0.00000000E+00
  0.00000000E+00  0.00000000E+00  0.00000000E+00
  0.00000000E+00  0.00000000E+00  0.00000000E+00
  0.00000000E+00  0.00000000E+00  0.00000000E+00
  0.00000000E+00  0.00000000E+00  0.00000000E+00
  0.00000000E+00  0.00000000E+00  0.00000000E+00
  0.00000000E+00  0.00000000E+00  0.00000000E+00
  0.00000000E+00  0.00000000E+00  0.00000000E+00
  0.00000000E+00  0.00000000E+00  0.00000000E+00
  0.00000000E+00  0.00000000E+00  0.00000000E+00
  0.00000000E+00  0.00000000E+00  0.00000000E+00
  0.00000000E+00  0.00000000E+00  0.00000000E+00
  0.00000000E+00  0.00000000E+00  0.00000000E+00
  0.00000000E+00  0.00000000E+00  0.00000000E+00
  0.00000000E+00  0.00000000E+00  0.00000000E+00
  0.00000000E+00  0.00000000E+00  0.00000000E+00
  0.00000000E+00  0.00000000E+00  0.00000000E+00
  0.00000000E+00  0.00000000E+00  0.00000000E+00
  0.00000000E+00  0.00000000E+00  0.00000000E+00
  0.00000000E+00  0.00000000E+00  0.00000000E+00
  0.00000000E+00  0.00000000E+00  0.00000000E+00
  0.00000000E+00  0.00000000E+00  0.00000000E+00
  0.00000000E+00  0.00000000E+00  0.00000000E+00
  0.00000000E+00  0.00000000E+00  0.00000000E+00
  0.00000000E+00  0.00000000E+00  0.00000000E+00
  0.00000000E+00  0.00000000E+00  0.00000000E+00
  0.00000000E+00  0.00000000E+00  0.00000000E+00
  0.00000000E+00  0.00000000E+00  0.00000000E+00
  0.00000000E+00  0.00000000E+00  0.00000000E+00
  0.00000000E+00  0.00000000E+00  0.00000000E+00
  0.00000000E+00  0.00000000E+00  0.00000000E+00
  0.00000000E+00  0.00000000E+00  0.00000000E+00
  0.00000000E+00  0.00000000E+00  0.00000000E+00
  0.00000000E+00  0.00000000E+00  0.00000000E+00
  0.00000000E+00  0.00000000E+00  0.00000000E+00
  0.00000000E+00  0.00000000E+00  0.00000000E+00
  0.00000000E+00  0.00000000E+00  0.00000000E+00
  0.00000000E+00  0.00000000E+00  0.00000000E+00
  0.00000000E+00  0.00000000E+00  0.00000000E+00
  0.00000000E+00  0.00000000E+00  0.00000000E+00
  0.00000000E+00  0.00000000E+00  0.00000000E+00
  0.00000000E+00  0.00000000E+00  0.00000000E+00
  0.00000000E+00  0.00000000E+00  0.00000000E+00
  0.00000000E+00  0.00000000E+00  0.00000000E+00
  0.00000000E+00  0.00000000E+00  0.00000000E+00
  0.00000000E+00  0.00000000E+00  0.00000000E+00
  0.00000000E+00  0.00000000E+00  0.00000000E+00
  0.00000000E+00  0.00000000E+00  0.00000000E+00
  0.00000000E+00  0.00000000E+00  0.00000000E+00
  0.00000000E+00  0.00000000E+00  0.00000000E+00
  0.00000000E+00  0.00000000E+00  0.00000000E+00
  0.00000000E+00  0.00000000E+00  0.00000000E+00
  0.00000000E+00  0.00000000E+00  0.00000000E+00
  0.00000000E+00  0.00000000E+00  0.00000000E+00
  0.00000000E+00  0.00000000E+00  0.00000000E+00
  0.00000000E+00  0.00000000E+00  0.00000000E+00
  0.00000000E+00  0.00000000E+00  0.00000000E+00
  0.00000000E+00  0.00000000E+00  0.00000000E+00
  0.00000000E+00  0.00000000E+00  0.00000000E+00
  0.00000000E+00  0.00000000E+00  0.00000000E+00
  0.00000000E+00  0.00000000E+00  0.00000000E+00
  0.00000000E+00  0.00000000E+00  0.00000000E+00
  0.00000000E+00  0.00000000E+00  0.00000000E+00
  0.00000000E+00  0.00000000E+00  0.00000000E+00
  0.00000000E+00  0.00000000E+00  0.00000000E+00
  0.00000000E+00  0.00000000E+00  0.00000000E+00
  0.00000000E+00  0.00000000E+00  0.00000000E+00
  0.00000000E+00  0.00000000E+00  0.00000000E+00
  0.00000000E+00  0.00000000E+00  0.00000000E+00
  0.00000000E+00  0.00000000E+00  0.00000000E+00
  0.00000000E+00  0.00000000E+00  0.00000000E+00
  0.00000000E+00  0.00000000E+00  0.00000000E+00
  0.00000000E+00  0.00000000E+00  0.00000000E+00
  0.00000000E+00  0.00000000E+00  0.00000000E+00
  0.00000000E+00  0.00000000E+00  0.00000000E+00
  0.00000000E+00  0.00000000E+00  0.00000000E+00
  0.00000000E+00  0.00000000E+00  0.00000000E+00
  0.00000000E+00  0.00000000E+00  0.00000000E+00
  0.00000000E+00  0.00000000E+00  0.00000000E+00
