Zn24 N16                                
   1.00000000000000     
     4.8553840286853625    4.8553906200877970    4.8554096081207865
     4.8553841042926198   -4.8554333464567003   -4.8553666465072656
    -4.8554267880779092    4.8553903021131051   -4.8553666134452849
   Zn   N 
    24    16
Direct
  0.0254105963055906  0.9762581224321636  0.7479352798526619
  0.2716917491849031  0.5237495342755309  0.0491023215374682
  0.4745513780173738  0.7225073773362567  0.4508036823567565
  0.2282963387759906  0.7774720135188531  0.7520042726520799
  0.2774720139598230  0.2520027617043112  0.2282952329218730
  0.2225068505284042  0.9508030940288847  0.4745484268906353
  0.0237488984054792  0.5491034278622067  0.2716915805512059
  0.4762606784735794  0.2479387704530822  0.0254137685058211
  0.0491018284964468  0.7716891683290115  0.0237479684325734
  0.7479354716569162  0.5254120693787669  0.4762600029787407
  0.7520035886705330  0.7282964720219240  0.2774722060909554
  0.4508032465310379  0.9745498757947288  0.2225055751851599
  0.9745899944949414  0.0237423013660134  0.2520639686168096
  0.7283093567091186  0.4762505371415955  0.9508974676714956
  0.5254487762860265  0.2774934590845248  0.5491962319076293
  0.7717045806928695  0.2225289032932167  0.2479965303168754
  0.7225287707550763  0.7479991658261724  0.7717049550600450
  0.7774939136292502  0.0491974691462858  0.5254504820402417
  0.9762527639483878  0.4508970346046013  0.7283084984794499
  0.5237412954001641  0.7520632621625438  0.9745877021960396
  0.9508970195603013  0.2283099692677411  0.9762515392216571
  0.2520643391639297  0.4745882412902702  0.5237410578123587
  0.2479957004522575  0.2717017883384329  0.7225263142375624
  0.5491958231271497  0.0254500463293610  0.7774946312792466
  0.9999987883294850  0.9999994246695749  0.4999992062344276
  0.9999998529418974  0.4999992984310211  0.0000005299686237
  0.4999988772833106  0.4999994055223453  0.4999993408658483
  0.4999999481976971  0.9999993778521272  0.0000005696403846
  0.7293027915972345  0.2500474498124206  0.4793178152489332
  0.7707053972407465  0.7499850781298534  0.0207089931817777
  0.2499855571209721  0.5207092221036760  0.7707044748673937
  0.7500499551219235  0.9793198101484961  0.7293042331824608
  0.4793164076881240  0.2293014761710097  0.7500479677590093
  0.0207066568062544  0.2707038005761220  0.2499849856688030
  0.2706967007820609  0.7499515951997040  0.5206817283885030
  0.2292942005138059  0.2500149490577996  0.9792917922997972
  0.7500155997682469  0.4792932958521661  0.2292943049028509
  0.2499540904445823  0.0206829896696448  0.2706973121164751
  0.5206803303386280  0.7706952921178924  0.2499521185307430
  0.9792898725994803  0.7292926696996744  0.7500149303486054
 
  0.00000000E+00  0.00000000E+00  0.00000000E+00
  0.00000000E+00  0.00000000E+00  0.00000000E+00
  0.00000000E+00  0.00000000E+00  0.00000000E+00
  0.00000000E+00  0.00000000E+00  0.00000000E+00
  0.00000000E+00  0.00000000E+00  0.00000000E+00
  0.00000000E+00  0.00000000E+00  0.00000000E+00
  0.00000000E+00  0.00000000E+00  0.00000000E+00
  0.00000000E+00  0.00000000E+00  0.00000000E+00
  0.00000000E+00  0.00000000E+00  0.00000000E+00
  0.00000000E+00  0.00000000E+00  0.00000000E+00
  0.00000000E+00  0.00000000E+00  0.00000000E+00
  0.00000000E+00  0.00000000E+00  0.00000000E+00
  0.00000000E+00  0.00000000E+00  0.00000000E+00
  0.00000000E+00  0.00000000E+00  0.00000000E+00
  0.00000000E+00  0.00000000E+00  0.00000000E+00
  0.00000000E+00  0.00000000E+00  0.00000000E+00
  0.00000000E+00  0.00000000E+00  0.00000000E+00
  0.00000000E+00  0.00000000E+00  0.00000000E+00
  0.00000000E+00  0.00000000E+00  0.00000000E+00
  0.00000000E+00  0.00000000E+00  0.00000000E+00
  0.00000000E+00  0.00000000E+00  0.00000000E+00
  0.00000000E+00  0.00000000E+00  0.00000000E+00
  0.00000000E+00  0.00000000E+00  0.00000000E+00
  0.00000000E+00  0.00000000E+00  0.00000000E+00
  0.00000000E+00  0.00000000E+00  0.00000000E+00
  0.00000000E+00  0.00000000E+00  0.00000000E+00
  0.00000000E+00  0.00000000E+00  0.00000000E+00
  0.00000000E+00  0.00000000E+00  0.00000000E+00
  0.00000000E+00  0.00000000E+00  0.00000000E+00
  0.00000000E+00  0.00000000E+00  0.00000000E+00
  0.00000000E+00  0.00000000E+00  0.00000000E+00
  0.00000000E+00  0.00000000E+00  0.00000000E+00
  0.00000000E+00  0.00000000E+00  0.00000000E+00
  0.00000000E+00  0.00000000E+00  0.00000000E+00
  0.00000000E+00  0.00000000E+00  0.00000000E+00
  0.00000000E+00  0.00000000E+00  0.00000000E+00
  0.00000000E+00  0.00000000E+00  0.00000000E+00
  0.00000000E+00  0.00000000E+00  0.00000000E+00
  0.00000000E+00  0.00000000E+00  0.00000000E+00
  0.00000000E+00  0.00000000E+00  0.00000000E+00
