Ca18 Zn36 P36                           
   1.00000000000000     
    12.0155930000000009   -0.0006380000000000    0.0000940000000000
    -6.0083489999999999   10.4044749999999997   -0.0000060000000000
     0.0001060000000000    0.0000530000000000   13.6020669999999999
   Ca   Zn   P 
    18    36    36
Direct
  0.3357518170617624  0.3307963670884391  0.9984442565580167
  0.3355602059566323  0.6705932269250638  0.4980858695327015
  0.3343817066523371  0.6673734015473087  0.0007027928410679
  0.3286440657440934  0.9956996030538221  0.5016485748149435
  0.3341937234886387  0.0005503682990877  0.9989703657236930
  0.6709771569007046  0.3380271714570569  0.5016184696431267
  0.6661153420530113  0.3324570762886054  0.9990024598284961
  0.6712379450407866  0.6716205229659806  0.5003917655393693
  0.6668054504286332  0.6657769353097507  0.9992118988873813
  0.6681000020136594  0.9984921404218099  0.5002865572140252
  0.6667624357900479  0.9999746766022497  0.9992385006224751
  0.9960612819783208  0.3310233719766273  0.4980931446205759
  0.9993083449125990  0.3322578662179012  0.0006353004700514
  0.9999724165686033  0.6666932305044426  0.4992213444903868
  0.0007680793435512  0.6658564799731863  0.0002125364798005
  0.9949450753821694  0.9952731100659165  0.5003203558857123
  0.0009772528196876  0.9999291774937191  0.9990738389269964
  0.4367988050297242  0.2298091914655132  0.3251466160411240
  0.2860311279652379  0.3812750350906455  0.5236530918042419
  0.1067273131027591  0.2168981794753506  0.3172659042893144
  0.1154498462525737  0.2231091003741597  0.8151479355573770
  0.1133652114392305  0.5531332025050730  0.3193559468474874
  0.1109498762868597  0.5557121564224872  0.8179893800984246
  0.1062815483111095  0.8809622713113257  0.3142586031881436
  0.1111449507168203  0.8888653966468212  0.8173934182244267
  0.4465387674890522  0.2209206893927487  0.8104198895589363
  0.4496195089189214  0.5595816700028209  0.3170588285872284
  0.4438718013538647  0.5519303943198537  0.8157186855516017
  0.4463977439733782  0.8878865600505605  0.3150325236141427
  0.4445580950165819  0.8888525706631043  0.8164764374435478
  0.7786908543073849  0.2202597671845368  0.3150722985606365
  0.7778267939216761  0.2220815480368472  0.8164721364121164
  0.7856905985202047  0.5603844471521526  0.3142549622789375
  0.7778157609040690  0.5555331403348447  0.8173974889412889
  0.7785151598227174  0.8880516085318391  0.3146969074600605
  0.7779321233345939  0.8887779423304991  0.8179521231278386
  0.2162950566740918  0.1035542363947428  0.1854554719753665
  0.2271368777149334  0.1121411284048577  0.6805922068685675
  0.2259163717238408  0.4405071730636152  0.1767208770390170
  0.2187104801331401  0.4479435275318409  0.6931270288940254
  0.2227335804684785  0.7775136124052437  0.1821895532516393
  0.2218473906008640  0.7766965128272503  0.6851045763839849
  0.5555477868735892  0.1111161906769738  0.1865196572421439
  0.5554778497088435  0.1111900804815562  0.6819760334797422
  0.5630257007825676  0.4502635313181926  0.1854539610204569
  0.5544781759353654  0.4395184620856369  0.6806250806922947
  0.5555422710767033  0.7777672713558701  0.1825299577407975
  0.5548810422744381  0.7777202399693692  0.6820064962346848
  0.8888846057009658  0.1111126405143921  0.1825335811573865
  0.8889334975263878  0.1117150844535999  0.6820077638415114
  0.8891530395303420  0.4439213867665757  0.1821855344691201
  0.8899138810792735  0.4447680379927164  0.6850777621022317
  0.8890537215219467  0.7776068648778747  0.1820738990609030
  0.8890296761381080  0.7776148631237163  0.6865309505053006
  0.1108822737582358  0.2201473876191997  0.1311744408933038
  0.1177155895147592  0.2248915657155663  0.6293230076304326
  0.1137761090051370  0.5528572938811394  0.1362026884133272
  0.1112922640154608  0.5553306649398877  0.6317730643036938
  0.1101089659212136  0.8854658131377917  0.1283600033156560
  0.1103450343310470  0.8877958193075486  0.6335063260650173
  0.4443431309792700  0.2222494037439233  0.1278619565142094
  0.4457300066782679  0.2209422598222801  0.6276231370088681
  0.4463954095843690  0.5556792979014915  0.1311616045580450
  0.4418040303873809  0.5490228258436076  0.6295666045331387
  0.4452967903588032  0.8893197011446858  0.1311086153045267
  0.4439569363242555  0.8877458115067185  0.6321368943165666
  0.7773391937560987  0.2213566968412195  0.1311297688231008
  0.7788996815155613  0.2226487489462130  0.6321016627886351
  0.7811271730825098  0.5565030176323376  0.1283920462396111
  0.7788143877391889  0.5562664837131663  0.6335107495726859
  0.7779749809370813  0.8886844760403321  0.1308422966089466
  0.7779781979994951  0.8886021579264280  0.6341226882620816
  0.1965169650541938  0.0920215245812201  0.3694288648132442
  0.2241383488851056  0.1111545000241634  0.8657621477518944
  0.2280895403370806  0.4384666947022779  0.3721136683992086
  0.2225782240767060  0.4441556895499517  0.8708566546808640
  0.2229217818779290  0.7755902844994580  0.3663910274036937
  0.2225983792081365  0.7772629632713048  0.8683866366544919
  0.5616036968938261  0.1049867614879858  0.3712894310733645
  0.5565356253007607  0.1101932940533885  0.8674171800974051
  0.5746639583510316  0.4700847379776718  0.3694458862544039
  0.5556482743638327  0.4428560062579265  0.8658862716918776
  0.5563553663730829  0.7789524444513489  0.3673400237955562
  0.5543676833823739  0.7748347795862998  0.8647935267442080
  0.8875138297864780  0.1102052669679878  0.3673544183045934
  0.8921629939446589  0.1124585658144355  0.8646567599799155
  0.8909389445070559  0.4436709674084156  0.3664260810959306
  0.8893989739782597  0.4440541426526892  0.8683723361156126
  0.8896311984576428  0.7769935737984710  0.3666135636271477
  0.8892268650678403  0.7774579355253195  0.8689363647399020
 
  0.00000000E+00  0.00000000E+00  0.00000000E+00
  0.00000000E+00  0.00000000E+00  0.00000000E+00
  0.00000000E+00  0.00000000E+00  0.00000000E+00
  0.00000000E+00  0.00000000E+00  0.00000000E+00
  0.00000000E+00  0.00000000E+00  0.00000000E+00
  0.00000000E+00  0.00000000E+00  0.00000000E+00
  0.00000000E+00  0.00000000E+00  0.00000000E+00
  0.00000000E+00  0.00000000E+00  0.00000000E+00
  0.00000000E+00  0.00000000E+00  0.00000000E+00
  0.00000000E+00  0.00000000E+00  0.00000000E+00
  0.00000000E+00  0.00000000E+00  0.00000000E+00
  0.00000000E+00  0.00000000E+00  0.00000000E+00
  0.00000000E+00  0.00000000E+00  0.00000000E+00
  0.00000000E+00  0.00000000E+00  0.00000000E+00
  0.00000000E+00  0.00000000E+00  0.00000000E+00
  0.00000000E+00  0.00000000E+00  0.00000000E+00
  0.00000000E+00  0.00000000E+00  0.00000000E+00
  0.00000000E+00  0.00000000E+00  0.00000000E+00
  0.00000000E+00  0.00000000E+00  0.00000000E+00
  0.00000000E+00  0.00000000E+00  0.00000000E+00
  0.00000000E+00  0.00000000E+00  0.00000000E+00
  0.00000000E+00  0.00000000E+00  0.00000000E+00
  0.00000000E+00  0.00000000E+00  0.00000000E+00
  0.00000000E+00  0.00000000E+00  0.00000000E+00
  0.00000000E+00  0.00000000E+00  0.00000000E+00
  0.00000000E+00  0.00000000E+00  0.00000000E+00
  0.00000000E+00  0.00000000E+00  0.00000000E+00
  0.00000000E+00  0.00000000E+00  0.00000000E+00
  0.00000000E+00  0.00000000E+00  0.00000000E+00
  0.00000000E+00  0.00000000E+00  0.00000000E+00
  0.00000000E+00  0.00000000E+00  0.00000000E+00
  0.00000000E+00  0.00000000E+00  0.00000000E+00
  0.00000000E+00  0.00000000E+00  0.00000000E+00
  0.00000000E+00  0.00000000E+00  0.00000000E+00
  0.00000000E+00  0.00000000E+00  0.00000000E+00
  0.00000000E+00  0.00000000E+00  0.00000000E+00
  0.00000000E+00  0.00000000E+00  0.00000000E+00
  0.00000000E+00  0.00000000E+00  0.00000000E+00
  0.00000000E+00  0.00000000E+00  0.00000000E+00
  0.00000000E+00  0.00000000E+00  0.00000000E+00
  0.00000000E+00  0.00000000E+00  0.00000000E+00
  0.00000000E+00  0.00000000E+00  0.00000000E+00
  0.00000000E+00  0.00000000E+00  0.00000000E+00
  0.00000000E+00  0.00000000E+00  0.00000000E+00
  0.00000000E+00  0.00000000E+00  0.00000000E+00
  0.00000000E+00  0.00000000E+00  0.00000000E+00
  0.00000000E+00  0.00000000E+00  0.00000000E+00
  0.00000000E+00  0.00000000E+00  0.00000000E+00
  0.00000000E+00  0.00000000E+00  0.00000000E+00
  0.00000000E+00  0.00000000E+00  0.00000000E+00
  0.00000000E+00  0.00000000E+00  0.00000000E+00
  0.00000000E+00  0.00000000E+00  0.00000000E+00
  0.00000000E+00  0.00000000E+00  0.00000000E+00
  0.00000000E+00  0.00000000E+00  0.00000000E+00
  0.00000000E+00  0.00000000E+00  0.00000000E+00
  0.00000000E+00  0.00000000E+00  0.00000000E+00
  0.00000000E+00  0.00000000E+00  0.00000000E+00
  0.00000000E+00  0.00000000E+00  0.00000000E+00
  0.00000000E+00  0.00000000E+00  0.00000000E+00
  0.00000000E+00  0.00000000E+00  0.00000000E+00
  0.00000000E+00  0.00000000E+00  0.00000000E+00
  0.00000000E+00  0.00000000E+00  0.00000000E+00
  0.00000000E+00  0.00000000E+00  0.00000000E+00
  0.00000000E+00  0.00000000E+00  0.00000000E+00
  0.00000000E+00  0.00000000E+00  0.00000000E+00
  0.00000000E+00  0.00000000E+00  0.00000000E+00
  0.00000000E+00  0.00000000E+00  0.00000000E+00
  0.00000000E+00  0.00000000E+00  0.00000000E+00
  0.00000000E+00  0.00000000E+00  0.00000000E+00
  0.00000000E+00  0.00000000E+00  0.00000000E+00
  0.00000000E+00  0.00000000E+00  0.00000000E+00
  0.00000000E+00  0.00000000E+00  0.00000000E+00
  0.00000000E+00  0.00000000E+00  0.00000000E+00
  0.00000000E+00  0.00000000E+00  0.00000000E+00
  0.00000000E+00  0.00000000E+00  0.00000000E+00
  0.00000000E+00  0.00000000E+00  0.00000000E+00
  0.00000000E+00  0.00000000E+00  0.00000000E+00
  0.00000000E+00  0.00000000E+00  0.00000000E+00
  0.00000000E+00  0.00000000E+00  0.00000000E+00
  0.00000000E+00  0.00000000E+00  0.00000000E+00
  0.00000000E+00  0.00000000E+00  0.00000000E+00
  0.00000000E+00  0.00000000E+00  0.00000000E+00
  0.00000000E+00  0.00000000E+00  0.00000000E+00
  0.00000000E+00  0.00000000E+00  0.00000000E+00
  0.00000000E+00  0.00000000E+00  0.00000000E+00
  0.00000000E+00  0.00000000E+00  0.00000000E+00
  0.00000000E+00  0.00000000E+00  0.00000000E+00
  0.00000000E+00  0.00000000E+00  0.00000000E+00
  0.00000000E+00  0.00000000E+00  0.00000000E+00
  0.00000000E+00  0.00000000E+00  0.00000000E+00
