generated by phonopy                    
   1.00000000000000     
     3.8511028206546873    0.0000000059099959   -0.0000001013383159
     0.0000000071465816    3.8511027147588948   -0.0000000064326699
    -0.0000003325210096   -0.0000000209873670   12.7713213635157832
   Sr   Zn   N 
     4     2     4
Direct
  0.0000000150211861  0.9999999689405143  0.3418621139744005
  0.0000000703358225  0.0000000020872477  0.6581378912705418
  0.5000000487895733  0.5000000081812743  0.8418620954538198
  0.5000000716403221  0.4999999522882845  0.1581378975272258
  0.9999999898136025  0.0000000141164307  0.0000002548780671
  0.4999999821292747  0.5000000153360773  0.4999997448331897
  0.0007496322234530  0.0000000054198281  0.1434166209752590
  0.9999999494361020  0.0000000140500092  0.8573328243718095
  0.4999999672754853  0.5000000027637626  0.6426671324834246
  0.4999999363590391  0.5000000168165712  0.3573330872561300
 
  0.00000000E+00  0.00000000E+00  0.00000000E+00
  0.00000000E+00  0.00000000E+00  0.00000000E+00
  0.00000000E+00  0.00000000E+00  0.00000000E+00
  0.00000000E+00  0.00000000E+00  0.00000000E+00
  0.00000000E+00  0.00000000E+00  0.00000000E+00
  0.00000000E+00  0.00000000E+00  0.00000000E+00
  0.00000000E+00  0.00000000E+00  0.00000000E+00
  0.00000000E+00  0.00000000E+00  0.00000000E+00
  0.00000000E+00  0.00000000E+00  0.00000000E+00
  0.00000000E+00  0.00000000E+00  0.00000000E+00
