Sr2 Zn1 P2                              
   1.00000000000000     
     4.1986663953350050   -0.0022114177343189   -0.0000000133155535
    -2.1012153932418300    3.6320356075588061    0.0000000012681720
    -0.0000000215076859   -0.0000000226789907    8.3782023717236527
   Sr   Zn   P 
     2     1     2
Direct
  0.0001153175220594  0.0004663404976668  0.5467311843160374
  0.0001153446578996  0.0004663577852000  0.9532688126335671
  0.6661333240156537  0.3327055155823970  0.2500000041983341
  0.3332269033762856  0.6665637860991680  0.2500000009102976
  0.6670761104280984  0.3331310000355714  0.7499999979417638
 
  0.00000000E+00  0.00000000E+00  0.00000000E+00
  0.00000000E+00  0.00000000E+00  0.00000000E+00
  0.00000000E+00  0.00000000E+00  0.00000000E+00
  0.00000000E+00  0.00000000E+00  0.00000000E+00
  0.00000000E+00  0.00000000E+00  0.00000000E+00
