Sr18 Zn36 N36                           
   1.00000000000000     
    10.6064257193141938   -0.0009700936879048   -0.0001013760011690
    -5.3040305370399778    9.1870765128424896    0.0000385400280161
    -0.0001150181172923   -0.0000161768253497   12.3786153335240936
   Sr   Zn   N 
    18    35    36
Direct
  0.3334475629909351  0.3334882984031779  0.0021529442733551
  0.3368555348120389  0.3300388034960345  0.4868269456100420
  0.3323686820260852  0.6661795742787300  0.9992006562308681
  0.3332523084865162  0.6666378715974038  0.4994037122277720
  0.3334500033299899  0.9999627294524684  0.0021824893384471
  0.3368511387850085  0.0068036852699014  0.4868031626687859
  0.6665830637392680  0.3332988849668778  0.0014777865432724
  0.6598710365829790  0.3299394582591368  0.4867067439711236
  0.6644203734420850  0.6621048711867777  0.0050420746989877
  0.6675975435221829  0.6686437949994636  0.5016612751943024
  0.6643978535785335  0.0023012549768588  0.0050478937494795
  0.6675868328998814  0.9989672559384561  0.5016532667438962
  0.0003237348680876  0.3339001134240161  0.9993997672233449
  0.0000703954922247  0.3331511648742868  0.4992872753626598
  0.0003241522237137  0.6664317790010577  0.9994012412419156
  0.0000674190534842  0.6669248767966012  0.4992851632731805
  0.0045943220239711  0.0023013386255526  0.0051176692669227
  0.9982373645468274  0.9991216541540665  0.5014391385154536
  0.1065869491385789  0.2169937780304567  0.3123077383657593
  0.1124160165363344  0.2216947521978347  0.8137948783048984
  0.1099191753470513  0.5549481339811662  0.3132958835972816
  0.1104545416875409  0.5552079079629685  0.8114567744690576
  0.1065420757133932  0.8895748184529667  0.3122781895968774
  0.1124149896762243  0.8906699530217522  0.8137896102226687
  0.4442312507336135  0.2220923771047309  0.8137107913597296
  0.4480898003535543  0.5604333934234611  0.3125419664314064
  0.4451547577376579  0.5546953801384044  0.8134542344990924
  0.4481848626778528  0.8876919624192021  0.3124287657674254
  0.4450368242301937  0.8904602841875692  0.8134600922369393
  0.7775311937171174  0.2171585453956132  0.3129984664865725
  0.7765923797851706  0.2213302059273231  0.8135667320371498
  0.7774864931478059  0.5603526778355199  0.3129893569434155
  0.7765375048912839  0.5552056185429567  0.8135512612382204
  0.7769594143334133  0.8885285636276533  0.3139980229190552
  0.7770749432997412  0.8885392553776903  0.8172040911358132
  0.2524460607569830  0.1262110711536718  0.2037129921267566
  0.2242765156589286  0.1121277366458347  0.6829033783375399
  0.2218624721115164  0.4442366279269302  0.1864377575424235
  0.2240024324929115  0.4431080192958802  0.6842241487255950
  0.2218843928725699  0.7776213442200748  0.1864491290758987
  0.2239742754177870  0.7808529556209474  0.6842049395514765
  0.5422273914582117  0.1260776992468819  0.2034956811749822
  0.5547085012455567  0.1124167291306594  0.6829537044844864
  0.5421694306998733  0.4161794173814657  0.2035133837704181
  0.5546683521355026  0.4422355492491760  0.6829556678209793
  0.5539458760425798  0.7769101197570708  0.1849583148878199
  0.5549345692771968  0.7775182523282109  0.6869430138977294
  0.8895958019368531  0.1125301278898834  0.1858007987415644
  0.8899921652611427  0.1121294061523234  0.6867110660587591
  0.8876772171943251  0.4438395846451449  0.1855403585373912
  0.8856727303901967  0.4428346225404537  0.6838756067077104
  0.8895511691951706  0.7770607334362083  0.1857822220860804
  0.8899637550851794  0.7778359421603863  0.6867239422263979
  0.1118379317998209  0.2245023737452529  0.1394577783369695
  0.1119707865005868  0.2223187328354697  0.6380505997263888
  0.1106984647045936  0.5553440840742242  0.1384598388287554
  0.1112841654963112  0.5556371295437100  0.6380140637215798
  0.1118584523689331  0.8873567398749176  0.1394650875429957
  0.1119665234743023  0.8896458003825946  0.6380530056960974
  0.4451642257354635  0.2225950641713420  0.1286275852444894
  0.4446778734743284  0.2223330817948560  0.6360159669718035
  0.4421014305961174  0.5548376550695703  0.1394785210842549
  0.4446845599208737  0.5551530695297798  0.6380389592031862
  0.4421063273330093  0.8872197118412637  0.1394586177720403
  0.4446674433261368  0.8895320789083253  0.6380370520524690
  0.7790081508928712  0.2242270059647911  0.1394767369985012
  0.7775141268854755  0.2222548847140245  0.6380606823994652
  0.7790264140660822  0.5548069312191589  0.1394719624286657
  0.7775117591248103  0.5552535742185954  0.6380609763952900
  0.7777466080404308  0.8888716923414178  0.1390430938328101
  0.7779691611406530  0.8889919713432739  0.6417204193599468
  0.2040395098728268  0.1020201774286164  0.3634156573802135
  0.2228999787392452  0.1114436453607150  0.8605201808924431
  0.2218661250057197  0.4445238548557219  0.3606012628974957
  0.2222992862647823  0.4443389251899786  0.8601327309573692
  0.2218582757605373  0.7773378305424192  0.3605900729090940
  0.2222776342890643  0.7779526594558311  0.8601425987467775
  0.5645184964376779  0.1013598578517112  0.3634804878340576
  0.5553459892534205  0.1113083823064015  0.8602986436653540
  0.5645150283667543  0.4631682762397906  0.3634829836591142
  0.5553406390805250  0.4440320747958697  0.8602933518745853
  0.5566985897009311  0.7783500141171530  0.3612955934305337
  0.5549880003466040  0.7775140606627113  0.8619565185930181
  0.8882144085416906  0.1095609419854281  0.3612322326134882
  0.8891686790225148  0.1113337317426830  0.8618671257401087
  0.8887170214804037  0.4443603014583575  0.3605593333505145
  0.8885901402988532  0.4442927280642982  0.8600840363569432
  0.8882020997593273  0.7786717450046138  0.3612345231405011
  0.8891550882554597  0.7778262552557961  0.8618635508634978
 
  0.00000000E+00  0.00000000E+00  0.00000000E+00
  0.00000000E+00  0.00000000E+00  0.00000000E+00
  0.00000000E+00  0.00000000E+00  0.00000000E+00
  0.00000000E+00  0.00000000E+00  0.00000000E+00
  0.00000000E+00  0.00000000E+00  0.00000000E+00
  0.00000000E+00  0.00000000E+00  0.00000000E+00
  0.00000000E+00  0.00000000E+00  0.00000000E+00
  0.00000000E+00  0.00000000E+00  0.00000000E+00
  0.00000000E+00  0.00000000E+00  0.00000000E+00
  0.00000000E+00  0.00000000E+00  0.00000000E+00
  0.00000000E+00  0.00000000E+00  0.00000000E+00
  0.00000000E+00  0.00000000E+00  0.00000000E+00
  0.00000000E+00  0.00000000E+00  0.00000000E+00
  0.00000000E+00  0.00000000E+00  0.00000000E+00
  0.00000000E+00  0.00000000E+00  0.00000000E+00
  0.00000000E+00  0.00000000E+00  0.00000000E+00
  0.00000000E+00  0.00000000E+00  0.00000000E+00
  0.00000000E+00  0.00000000E+00  0.00000000E+00
  0.00000000E+00  0.00000000E+00  0.00000000E+00
  0.00000000E+00  0.00000000E+00  0.00000000E+00
  0.00000000E+00  0.00000000E+00  0.00000000E+00
  0.00000000E+00  0.00000000E+00  0.00000000E+00
  0.00000000E+00  0.00000000E+00  0.00000000E+00
  0.00000000E+00  0.00000000E+00  0.00000000E+00
  0.00000000E+00  0.00000000E+00  0.00000000E+00
  0.00000000E+00  0.00000000E+00  0.00000000E+00
  0.00000000E+00  0.00000000E+00  0.00000000E+00
  0.00000000E+00  0.00000000E+00  0.00000000E+00
  0.00000000E+00  0.00000000E+00  0.00000000E+00
  0.00000000E+00  0.00000000E+00  0.00000000E+00
  0.00000000E+00  0.00000000E+00  0.00000000E+00
  0.00000000E+00  0.00000000E+00  0.00000000E+00
  0.00000000E+00  0.00000000E+00  0.00000000E+00
  0.00000000E+00  0.00000000E+00  0.00000000E+00
  0.00000000E+00  0.00000000E+00  0.00000000E+00
  0.00000000E+00  0.00000000E+00  0.00000000E+00
  0.00000000E+00  0.00000000E+00  0.00000000E+00
  0.00000000E+00  0.00000000E+00  0.00000000E+00
  0.00000000E+00  0.00000000E+00  0.00000000E+00
  0.00000000E+00  0.00000000E+00  0.00000000E+00
  0.00000000E+00  0.00000000E+00  0.00000000E+00
  0.00000000E+00  0.00000000E+00  0.00000000E+00
  0.00000000E+00  0.00000000E+00  0.00000000E+00
  0.00000000E+00  0.00000000E+00  0.00000000E+00
  0.00000000E+00  0.00000000E+00  0.00000000E+00
  0.00000000E+00  0.00000000E+00  0.00000000E+00
  0.00000000E+00  0.00000000E+00  0.00000000E+00
  0.00000000E+00  0.00000000E+00  0.00000000E+00
  0.00000000E+00  0.00000000E+00  0.00000000E+00
  0.00000000E+00  0.00000000E+00  0.00000000E+00
  0.00000000E+00  0.00000000E+00  0.00000000E+00
  0.00000000E+00  0.00000000E+00  0.00000000E+00
  0.00000000E+00  0.00000000E+00  0.00000000E+00
  0.00000000E+00  0.00000000E+00  0.00000000E+00
  0.00000000E+00  0.00000000E+00  0.00000000E+00
  0.00000000E+00  0.00000000E+00  0.00000000E+00
  0.00000000E+00  0.00000000E+00  0.00000000E+00
  0.00000000E+00  0.00000000E+00  0.00000000E+00
  0.00000000E+00  0.00000000E+00  0.00000000E+00
  0.00000000E+00  0.00000000E+00  0.00000000E+00
  0.00000000E+00  0.00000000E+00  0.00000000E+00
  0.00000000E+00  0.00000000E+00  0.00000000E+00
  0.00000000E+00  0.00000000E+00  0.00000000E+00
  0.00000000E+00  0.00000000E+00  0.00000000E+00
  0.00000000E+00  0.00000000E+00  0.00000000E+00
  0.00000000E+00  0.00000000E+00  0.00000000E+00
  0.00000000E+00  0.00000000E+00  0.00000000E+00
  0.00000000E+00  0.00000000E+00  0.00000000E+00
  0.00000000E+00  0.00000000E+00  0.00000000E+00
  0.00000000E+00  0.00000000E+00  0.00000000E+00
  0.00000000E+00  0.00000000E+00  0.00000000E+00
  0.00000000E+00  0.00000000E+00  0.00000000E+00
  0.00000000E+00  0.00000000E+00  0.00000000E+00
  0.00000000E+00  0.00000000E+00  0.00000000E+00
  0.00000000E+00  0.00000000E+00  0.00000000E+00
  0.00000000E+00  0.00000000E+00  0.00000000E+00
  0.00000000E+00  0.00000000E+00  0.00000000E+00
  0.00000000E+00  0.00000000E+00  0.00000000E+00
  0.00000000E+00  0.00000000E+00  0.00000000E+00
  0.00000000E+00  0.00000000E+00  0.00000000E+00
  0.00000000E+00  0.00000000E+00  0.00000000E+00
  0.00000000E+00  0.00000000E+00  0.00000000E+00
  0.00000000E+00  0.00000000E+00  0.00000000E+00
  0.00000000E+00  0.00000000E+00  0.00000000E+00
  0.00000000E+00  0.00000000E+00  0.00000000E+00
  0.00000000E+00  0.00000000E+00  0.00000000E+00
  0.00000000E+00  0.00000000E+00  0.00000000E+00
  0.00000000E+00  0.00000000E+00  0.00000000E+00
  0.00000000E+00  0.00000000E+00  0.00000000E+00
