Strontium dicalcium phosphide           
   1.00000000000000     
     4.6985428519123253   -0.0000353020675998   -0.0000049016318388
    -2.3493019970567697    4.0690401353183390    0.0000049611807288
    -0.0000101743533365    0.0000060059924688    7.4689830818191574
   Sr   Ca   P 
     1     2     2
Direct
  0.9999999960607084  0.0000000029639011  0.9999999939012341
  0.3333355400572344  0.6666644594087288  0.6468289812166930
  0.6666644372476327  0.3333355418511346  0.3531710059590978
  0.3333342943534561  0.6666658784716617  0.2448520084879888
  0.6666656722809705  0.3333341173045739  0.7551479804349910
 
  0.00000000E+00  0.00000000E+00  0.00000000E+00
  0.00000000E+00  0.00000000E+00  0.00000000E+00
  0.00000000E+00  0.00000000E+00  0.00000000E+00
  0.00000000E+00  0.00000000E+00  0.00000000E+00
  0.00000000E+00  0.00000000E+00  0.00000000E+00
