Strontium dicalcium phosphide
1.0
        4.0999999046         0.0000000000         0.0000000000
       -2.0499999523         3.5507040729         0.0000000000
        0.0000000000         0.0000000000         7.1009998322
   Sr   Ca    P
    1    2    2
Direct
     0.000000000         0.000000000         0.000000000
     0.333333343         0.666666687         0.628099978
     0.666666627         0.333333313         0.371900022
     0.333333343         0.666666687         0.271800011
     0.666666627         0.333333313         0.728199959
