Ca72 Zn36 N72                           
   1.00000000000000     
    10.7221290000000007    0.0000000000000000    0.0000000000000000
     0.0000000000000000   10.7221290000000007    0.0000000000000000
     0.0000000000000000    0.0000000000000000   24.9777859999999983
   Zn   Ca   N 
    36    72    71
Direct
  0.3328411557998194  0.0000436942195421  0.0000823095653928
  0.3342820179798309  0.0031678351155264  0.5000029342532315
  0.3342471072923274  0.3342470973089533  0.0000412906607536
  0.3324777495571141  0.3324767226110978  0.4976192783463844
  0.3342344850212839  0.6657304496981666  0.0000341760877518
  0.3342711587543334  0.6654043683006421  0.4999982762858579
  0.6671246396087298  0.9999687645083739  0.0000643285586648
  0.6673716065894268  0.9987025397095692  0.5001206558246807
  0.6657304484832594  0.3342344799721744  0.0000341823184797
  0.6654046226743375  0.3342712012440714  0.4999982828287202
  0.6657444015473928  0.6657443962994307  0.0000296645015680
  0.6658874833191248  0.6658874894741444  0.5000579822245825
  0.0009546504525773  0.0009550618584271  0.0000516259147290
  0.0006588656140707  0.0006602073299860  0.5001268873481592
  0.0000436600238913  0.3328411458282119  0.0000823014582494
  0.0031679991477418  0.3342820489950284  0.5000029289160466
  0.9999687251536429  0.6671246374946520  0.0000643231091075
  0.9987023951303371  0.6673716428905223  0.5001206797806006
  0.1658395453889767  0.1658395480840724  0.2503072375200688
  0.1657451566167651  0.1657451570371933  0.7500355337438123
  0.1667846954242052  0.4993204582767632  0.2504825086520910
  0.1671373330019463  0.5000655702502144  0.7500658772328563
  0.1657369252553380  0.8342461930781155  0.2500222557725209
  0.1657398200660296  0.8342496850492651  0.7500159512736957
  0.4993201952564092  0.1667844402226351  0.2504826972408480
  0.5000655461675692  0.1671373355022894  0.7500658784477992
  0.4989066389947254  0.4989068012393219  0.2503609876989330
  0.5009499243296887  0.5009499304327605  0.7500328095749751
  0.4998859175659760  0.8328058001129790  0.2500353640237805
  0.4999824027950766  0.8328490250736493  0.7500531071010457
  0.8342461992196348  0.1657369255497940  0.2500222459919783
  0.8342496837813087  0.1657398202365670  0.7500159499646060
  0.8328058100872084  0.4998859331302015  0.2500353722439925
  0.8328490249623570  0.4999824220258233  0.7500531098376655
  0.8342570977386359  0.8342571053140233  0.2499683916863447
  0.8342505866006107  0.8342505824437865  0.7500139139789113
  0.9991883786890767  0.3331461611904629  0.1688591741555570
  0.0003552407047351  0.3332591901925639  0.6686982604208893
  0.9994933029728514  0.6668223459252118  0.1687887502994840
  0.0002232412282410  0.6664570682445259  0.6686742784091280
  0.9999466742316159  0.9999466282757297  0.1687568211010699
  0.0001780622788701  0.0001780152319526  0.6687183906617449
  0.3332174509206354  0.3332174074307304  0.1685724243760305
  0.3337083227571682  0.3337083301720227  0.6691073675034929
  0.3333502065408851  0.6665507029235940  0.1689008809809351
  0.3334783840187114  0.6665270904930196  0.6687777515033346
  0.3331462511142718  0.9991882486316328  0.1688591888476481
  0.3332592822502676  0.0003552690047783  0.6686982438697200
  0.6665507345649999  0.3333501414972275  0.1689009224095201
  0.6665270905309271  0.3334783268180743  0.6687777500300243
  0.6664409459373886  0.6664408893385314  0.1688553300059468
  0.6664369258986937  0.6664368809583721  0.6687246057568643
  0.6668224488430639  0.9994931469728527  0.1687888004198470
  0.6664571224688558  0.0002231620314888  0.6686742704960906
  0.9990499049708390  0.9990499264294854  0.3306847200462570
  0.0000063084160402  0.0000062327099712  0.8312671696864058
  0.9999529716366169  0.3332330978428999  0.3312060737493994
  0.9999691000343276  0.3331339059814979  0.8312603363764310
  0.9987952412349088  0.6679324748193736  0.3306110967461606
  0.9999202411961434  0.6667205673588796  0.8312871178357426
  0.3332331043259273  0.9999524156362369  0.3312062543984169
  0.3331340382408214  0.9999689354967529  0.8312603565224137
  0.3329273304364335  0.3329273907192416  0.3260804904665946
  0.3335539942177874  0.3335539181125711  0.8311364832662846
  0.3334686278210128  0.6663490053742507  0.3310888025682388
  0.3334727664235686  0.6665175728048141  0.8311846828828138
  0.6679322501277767  0.9987955706735505  0.3306111690754534
  0.6667206819778571  0.9999200723135573  0.8312870994505914
  0.6663493744168534  0.3334685621123725  0.3310888855109440
  0.6665176399145096  0.3334726932218928  0.8311846784667480
  0.6676989826930608  0.6676989305399914  0.3306444197623293
  0.6665865955190000  0.6665865200311814  0.8312286222434153
  0.1586171497611559  0.1586187789945370  0.4191802675902565
  0.1665911125280530  0.1665910542200848  0.9187413618275357
  0.1584721067535781  0.5090824402925946  0.4191153419176388
  0.1666785433463858  0.4999383571487286  0.9186998921942759
  0.1663978719005783  0.8337548268147543  0.4188880836885218
  0.1665055584589794  0.8334676607276137  0.9187980857021572
  0.5090818814110705  0.1584729425545888  0.4191153565088470
  0.4999384970151226  0.1666784335456271  0.9186998786497256
  0.5081101725113655  0.5081114660491011  0.4191015992313254
  0.5000203761019151  0.5000202800898705  0.9187099669547507
  0.4997487739052673  0.8333333562189154  0.4187421260252790
  0.4998904233584511  0.8332122034653793  0.9187154137478757
  0.8337546473516895  0.1663978350433624  0.4188880586976609
  0.8334676645279799  0.1665055489180602  0.9187980531943865
  0.8333331749918997  0.4997482982333779  0.4187421277352357
  0.8332123204759796  0.4998903018774428  0.9187154025681963
  0.8335440084582970  0.8335440862088106  0.4189527855226416
  0.8335496418397597  0.8335495960695241  0.9188466702894473
  0.1665113630374861  0.1665113017500843  0.0812747319507352
  0.1673670111727219  0.1673669185041575  0.5809707983945103
  0.1664337844861734  0.5000999606903136  0.0813855825759191
  0.1677380852184385  0.4993750603416700  0.5809321641158576
  0.1664733568418839  0.8334448362807976  0.0812038122595524
  0.1668660331478478  0.8336018252692625  0.5811464361469518
  0.5001000792182850  0.1664336701533600  0.0813856491009446
  0.4993750513569921  0.1677382775188718  0.5809320956959780
  0.4999930698033381  0.4999929656702093  0.0812992445568455
  0.4992248247043563  0.4992247084456309  0.5808377744919113
  0.4999047118873392  0.8330596305778286  0.0812689779505718
  0.4990139294185099  0.8332951630336964  0.5812423424580899
  0.8334448256041753  0.1664733446866578  0.0812038483230282
  0.8336016834771982  0.1668660436485183  0.5811464636578592
  0.8330597356763150  0.4999045442863661  0.0812689920266436
  0.8332950190979034  0.4990139220043517  0.5812423472679527
  0.8335346782015947  0.8335346308400418  0.0811160149035999
  0.8333678476019557  0.8333678449826252  0.5814009148043411
  0.3333295564826741  0.0000903763931817  0.0730327384745664
  0.3336029941820229  0.9999027354147429  0.5729784224286547
  0.3335500420248891  0.3335500211012885  0.0730387575987663
  0.3335793227779220  0.3335799651055211  0.5722876623860316
  0.3334977951316063  0.6662434620953377  0.0730007256814318
  0.3333519170862260  0.6670187976289270  0.5729606130668188
  0.6666664139885938  0.9999503285663351  0.0729986389246235
  0.6667177838033069  0.9996745264428881  0.5728368692337966
  0.6662433896489475  0.3334978200745269  0.0730007432942941
  0.6670182636147217  0.3333520769197875  0.5729606918302252
  0.6663360705468051  0.6663360863844616  0.0729818874231398
  0.6663870330416373  0.6663870520540129  0.5727947773195226
  0.0003183249952983  0.0003185471606670  0.0729572330991317
  0.0001261375722308  0.0001263024368114  0.5728347017582394
  0.0000903063264772  0.3333295926775790  0.0730327283526009
  0.9999020865257791  0.3336030862380781  0.5729783539160707
  0.9999502582355291  0.6666664878778761  0.0729986282764301
  0.9996744782001272  0.6667178110497716  0.5728368825671595
  0.3338201068540414  0.0036416646876347  0.4265852705040700
  0.3332775516057396  0.9999403919042109  0.9272241258205014
  0.3335695844497621  0.3335696169855282  0.9271856385810082
  0.3334664049430387  0.6638769267931508  0.4265788900620180
  0.3335277966450150  0.6664144757076684  0.9271775099585966
  0.6672087320766309  0.9994406855689135  0.4268000723745544
  0.6667173522049552  0.9999303976639027  0.9272142696683190
  0.6638809927714817  0.3334659644439810  0.4265789811834040
  0.6664144467888988  0.3335278390939891  0.9271775136459510
  0.6665396168998896  0.6665399835741255  0.4267196501527408
  0.6664425531840124  0.6664425786687715  0.9271815252137330
  0.0000093616649295  0.0000098590437361  0.4268281350007754
  0.0002271306720871  0.0002273656840543  0.9272208422860686
  0.0036446316082888  0.3338195145093437  0.4265851509716683
  0.9999403637755222  0.3332776057082256  0.9272241178013871
  0.9994403742809297  0.6672090126491952  0.4268000693604677
  0.9999303688311798  0.6667173989632147  0.9272142695207251
  0.1683381307947087  0.1683383889823133  0.3238059387800476
  0.1664315291150444  0.1664315451986482  0.8229823723237999
  0.1682756604838147  0.4979640079062477  0.3239362790639433
  0.1667079463852943  0.4999519283800993  0.8230014212911811
  0.1660844304037639  0.8335480923556915  0.3231394989789038
  0.1663933591507387  0.8335377321586748  0.8229647149112935
  0.4979637842709295  0.1682758298551406  0.3239366267288375
  0.4999519023876928  0.1667079493988979  0.8230014280258118
  0.4975401250663367  0.4975402650494729  0.3238358121542930
  0.5002251102256210  0.5002251093139236  0.8229479922602678
  0.5004920592858539  0.8331447656671429  0.3231091219518660
  0.4999359925215430  0.8333196645783758  0.8229886351940650
  0.8335481158930094  0.1660845068077421  0.3231394669726413
  0.8335377021731318  0.1663933893129439  0.8229647040364299
  0.8331447999710946  0.5004921450607682  0.3231091353359972
  0.8333196593218943  0.4999360253508627  0.8229886375064766
  0.8336134600876690  0.8336135232608513  0.3230677220737945
  0.8335756318831926  0.8335756495353479  0.8229649064784681
  0.1662604197958473  0.1662603998845782  0.1775069466526418
  0.1664580489281065  0.1664581419949229  0.6771887341685385
  0.1662706524320541  0.4999865538887605  0.1776432352786230
  0.1668048003109277  0.5000762047819904  0.6771963473267846
  0.1663888043483226  0.8334413093827138  0.1770972012249814
  0.1663515774172453  0.8335959796313119  0.6771384459694190
  0.4999865517638113  0.1662705954780463  0.1776433383775213
  0.5000761277245971  0.1668048655989196  0.6771963469800681
  0.4998554661182766  0.4998554968233648  0.1775531912320432
  0.5003116112322203  0.5003117000621273  0.6771757395493765
  0.4997887878144027  0.8330320947429897  0.1771171564245435
  0.4999951584366258  0.8333693803615461  0.6771931900852337
  0.8334412772881095  0.1663888339167485  0.1770971849766667
  0.8335959529059309  0.1663516194655301  0.6771384518426586
  0.8330320931369783  0.4997887926804694  0.1771171699102823
  0.8333693637563613  0.4999952249037207  0.6771931924451877
  0.8334750001928839  0.8334750165736793  0.1771045605117578
  0.8335724539282907  0.8335724857978448  0.6771344322401447
 
  0.00000000E+00  0.00000000E+00  0.00000000E+00
  0.00000000E+00  0.00000000E+00  0.00000000E+00
  0.00000000E+00  0.00000000E+00  0.00000000E+00
  0.00000000E+00  0.00000000E+00  0.00000000E+00
  0.00000000E+00  0.00000000E+00  0.00000000E+00
  0.00000000E+00  0.00000000E+00  0.00000000E+00
  0.00000000E+00  0.00000000E+00  0.00000000E+00
  0.00000000E+00  0.00000000E+00  0.00000000E+00
  0.00000000E+00  0.00000000E+00  0.00000000E+00
  0.00000000E+00  0.00000000E+00  0.00000000E+00
  0.00000000E+00  0.00000000E+00  0.00000000E+00
  0.00000000E+00  0.00000000E+00  0.00000000E+00
  0.00000000E+00  0.00000000E+00  0.00000000E+00
  0.00000000E+00  0.00000000E+00  0.00000000E+00
  0.00000000E+00  0.00000000E+00  0.00000000E+00
  0.00000000E+00  0.00000000E+00  0.00000000E+00
  0.00000000E+00  0.00000000E+00  0.00000000E+00
  0.00000000E+00  0.00000000E+00  0.00000000E+00
  0.00000000E+00  0.00000000E+00  0.00000000E+00
  0.00000000E+00  0.00000000E+00  0.00000000E+00
  0.00000000E+00  0.00000000E+00  0.00000000E+00
  0.00000000E+00  0.00000000E+00  0.00000000E+00
  0.00000000E+00  0.00000000E+00  0.00000000E+00
  0.00000000E+00  0.00000000E+00  0.00000000E+00
  0.00000000E+00  0.00000000E+00  0.00000000E+00
  0.00000000E+00  0.00000000E+00  0.00000000E+00
  0.00000000E+00  0.00000000E+00  0.00000000E+00
  0.00000000E+00  0.00000000E+00  0.00000000E+00
  0.00000000E+00  0.00000000E+00  0.00000000E+00
  0.00000000E+00  0.00000000E+00  0.00000000E+00
  0.00000000E+00  0.00000000E+00  0.00000000E+00
  0.00000000E+00  0.00000000E+00  0.00000000E+00
  0.00000000E+00  0.00000000E+00  0.00000000E+00
  0.00000000E+00  0.00000000E+00  0.00000000E+00
  0.00000000E+00  0.00000000E+00  0.00000000E+00
  0.00000000E+00  0.00000000E+00  0.00000000E+00
  0.00000000E+00  0.00000000E+00  0.00000000E+00
  0.00000000E+00  0.00000000E+00  0.00000000E+00
  0.00000000E+00  0.00000000E+00  0.00000000E+00
  0.00000000E+00  0.00000000E+00  0.00000000E+00
  0.00000000E+00  0.00000000E+00  0.00000000E+00
  0.00000000E+00  0.00000000E+00  0.00000000E+00
  0.00000000E+00  0.00000000E+00  0.00000000E+00
  0.00000000E+00  0.00000000E+00  0.00000000E+00
  0.00000000E+00  0.00000000E+00  0.00000000E+00
  0.00000000E+00  0.00000000E+00  0.00000000E+00
  0.00000000E+00  0.00000000E+00  0.00000000E+00
  0.00000000E+00  0.00000000E+00  0.00000000E+00
  0.00000000E+00  0.00000000E+00  0.00000000E+00
  0.00000000E+00  0.00000000E+00  0.00000000E+00
  0.00000000E+00  0.00000000E+00  0.00000000E+00
  0.00000000E+00  0.00000000E+00  0.00000000E+00
  0.00000000E+00  0.00000000E+00  0.00000000E+00
  0.00000000E+00  0.00000000E+00  0.00000000E+00
  0.00000000E+00  0.00000000E+00  0.00000000E+00
  0.00000000E+00  0.00000000E+00  0.00000000E+00
  0.00000000E+00  0.00000000E+00  0.00000000E+00
  0.00000000E+00  0.00000000E+00  0.00000000E+00
  0.00000000E+00  0.00000000E+00  0.00000000E+00
  0.00000000E+00  0.00000000E+00  0.00000000E+00
  0.00000000E+00  0.00000000E+00  0.00000000E+00
  0.00000000E+00  0.00000000E+00  0.00000000E+00
  0.00000000E+00  0.00000000E+00  0.00000000E+00
  0.00000000E+00  0.00000000E+00  0.00000000E+00
  0.00000000E+00  0.00000000E+00  0.00000000E+00
  0.00000000E+00  0.00000000E+00  0.00000000E+00
  0.00000000E+00  0.00000000E+00  0.00000000E+00
  0.00000000E+00  0.00000000E+00  0.00000000E+00
  0.00000000E+00  0.00000000E+00  0.00000000E+00
  0.00000000E+00  0.00000000E+00  0.00000000E+00
  0.00000000E+00  0.00000000E+00  0.00000000E+00
  0.00000000E+00  0.00000000E+00  0.00000000E+00
  0.00000000E+00  0.00000000E+00  0.00000000E+00
  0.00000000E+00  0.00000000E+00  0.00000000E+00
  0.00000000E+00  0.00000000E+00  0.00000000E+00
  0.00000000E+00  0.00000000E+00  0.00000000E+00
  0.00000000E+00  0.00000000E+00  0.00000000E+00
  0.00000000E+00  0.00000000E+00  0.00000000E+00
  0.00000000E+00  0.00000000E+00  0.00000000E+00
  0.00000000E+00  0.00000000E+00  0.00000000E+00
  0.00000000E+00  0.00000000E+00  0.00000000E+00
  0.00000000E+00  0.00000000E+00  0.00000000E+00
  0.00000000E+00  0.00000000E+00  0.00000000E+00
  0.00000000E+00  0.00000000E+00  0.00000000E+00
  0.00000000E+00  0.00000000E+00  0.00000000E+00
  0.00000000E+00  0.00000000E+00  0.00000000E+00
  0.00000000E+00  0.00000000E+00  0.00000000E+00
  0.00000000E+00  0.00000000E+00  0.00000000E+00
  0.00000000E+00  0.00000000E+00  0.00000000E+00
  0.00000000E+00  0.00000000E+00  0.00000000E+00
  0.00000000E+00  0.00000000E+00  0.00000000E+00
  0.00000000E+00  0.00000000E+00  0.00000000E+00
  0.00000000E+00  0.00000000E+00  0.00000000E+00
  0.00000000E+00  0.00000000E+00  0.00000000E+00
  0.00000000E+00  0.00000000E+00  0.00000000E+00
  0.00000000E+00  0.00000000E+00  0.00000000E+00
  0.00000000E+00  0.00000000E+00  0.00000000E+00
  0.00000000E+00  0.00000000E+00  0.00000000E+00
  0.00000000E+00  0.00000000E+00  0.00000000E+00
  0.00000000E+00  0.00000000E+00  0.00000000E+00
  0.00000000E+00  0.00000000E+00  0.00000000E+00
  0.00000000E+00  0.00000000E+00  0.00000000E+00
  0.00000000E+00  0.00000000E+00  0.00000000E+00
  0.00000000E+00  0.00000000E+00  0.00000000E+00
  0.00000000E+00  0.00000000E+00  0.00000000E+00
  0.00000000E+00  0.00000000E+00  0.00000000E+00
  0.00000000E+00  0.00000000E+00  0.00000000E+00
  0.00000000E+00  0.00000000E+00  0.00000000E+00
  0.00000000E+00  0.00000000E+00  0.00000000E+00
  0.00000000E+00  0.00000000E+00  0.00000000E+00
  0.00000000E+00  0.00000000E+00  0.00000000E+00
  0.00000000E+00  0.00000000E+00  0.00000000E+00
  0.00000000E+00  0.00000000E+00  0.00000000E+00
  0.00000000E+00  0.00000000E+00  0.00000000E+00
  0.00000000E+00  0.00000000E+00  0.00000000E+00
  0.00000000E+00  0.00000000E+00  0.00000000E+00
  0.00000000E+00  0.00000000E+00  0.00000000E+00
  0.00000000E+00  0.00000000E+00  0.00000000E+00
  0.00000000E+00  0.00000000E+00  0.00000000E+00
  0.00000000E+00  0.00000000E+00  0.00000000E+00
  0.00000000E+00  0.00000000E+00  0.00000000E+00
  0.00000000E+00  0.00000000E+00  0.00000000E+00
  0.00000000E+00  0.00000000E+00  0.00000000E+00
  0.00000000E+00  0.00000000E+00  0.00000000E+00
  0.00000000E+00  0.00000000E+00  0.00000000E+00
  0.00000000E+00  0.00000000E+00  0.00000000E+00
  0.00000000E+00  0.00000000E+00  0.00000000E+00
  0.00000000E+00  0.00000000E+00  0.00000000E+00
  0.00000000E+00  0.00000000E+00  0.00000000E+00
  0.00000000E+00  0.00000000E+00  0.00000000E+00
  0.00000000E+00  0.00000000E+00  0.00000000E+00
  0.00000000E+00  0.00000000E+00  0.00000000E+00
  0.00000000E+00  0.00000000E+00  0.00000000E+00
  0.00000000E+00  0.00000000E+00  0.00000000E+00
  0.00000000E+00  0.00000000E+00  0.00000000E+00
  0.00000000E+00  0.00000000E+00  0.00000000E+00
  0.00000000E+00  0.00000000E+00  0.00000000E+00
  0.00000000E+00  0.00000000E+00  0.00000000E+00
  0.00000000E+00  0.00000000E+00  0.00000000E+00
  0.00000000E+00  0.00000000E+00  0.00000000E+00
  0.00000000E+00  0.00000000E+00  0.00000000E+00
  0.00000000E+00  0.00000000E+00  0.00000000E+00
  0.00000000E+00  0.00000000E+00  0.00000000E+00
  0.00000000E+00  0.00000000E+00  0.00000000E+00
  0.00000000E+00  0.00000000E+00  0.00000000E+00
  0.00000000E+00  0.00000000E+00  0.00000000E+00
  0.00000000E+00  0.00000000E+00  0.00000000E+00
  0.00000000E+00  0.00000000E+00  0.00000000E+00
  0.00000000E+00  0.00000000E+00  0.00000000E+00
  0.00000000E+00  0.00000000E+00  0.00000000E+00
  0.00000000E+00  0.00000000E+00  0.00000000E+00
  0.00000000E+00  0.00000000E+00  0.00000000E+00
  0.00000000E+00  0.00000000E+00  0.00000000E+00
  0.00000000E+00  0.00000000E+00  0.00000000E+00
  0.00000000E+00  0.00000000E+00  0.00000000E+00
  0.00000000E+00  0.00000000E+00  0.00000000E+00
  0.00000000E+00  0.00000000E+00  0.00000000E+00
  0.00000000E+00  0.00000000E+00  0.00000000E+00
  0.00000000E+00  0.00000000E+00  0.00000000E+00
  0.00000000E+00  0.00000000E+00  0.00000000E+00
  0.00000000E+00  0.00000000E+00  0.00000000E+00
  0.00000000E+00  0.00000000E+00  0.00000000E+00
  0.00000000E+00  0.00000000E+00  0.00000000E+00
  0.00000000E+00  0.00000000E+00  0.00000000E+00
  0.00000000E+00  0.00000000E+00  0.00000000E+00
  0.00000000E+00  0.00000000E+00  0.00000000E+00
  0.00000000E+00  0.00000000E+00  0.00000000E+00
  0.00000000E+00  0.00000000E+00  0.00000000E+00
  0.00000000E+00  0.00000000E+00  0.00000000E+00
  0.00000000E+00  0.00000000E+00  0.00000000E+00
  0.00000000E+00  0.00000000E+00  0.00000000E+00
  0.00000000E+00  0.00000000E+00  0.00000000E+00
  0.00000000E+00  0.00000000E+00  0.00000000E+00
  0.00000000E+00  0.00000000E+00  0.00000000E+00
  0.00000000E+00  0.00000000E+00  0.00000000E+00
  0.00000000E+00  0.00000000E+00  0.00000000E+00
  0.00000000E+00  0.00000000E+00  0.00000000E+00
  0.00000000E+00  0.00000000E+00  0.00000000E+00
  0.00000000E+00  0.00000000E+00  0.00000000E+00
