Ca72 Zn36 N72
1.0
10.722129 0.000000 -0.000000
0.000000 10.722129 -0.000000
-0.000000 -0.000000 24.977786
Zn Ca N
36 72 71
direct
0.333333 0.000000 0.000000 Zn
0.333333 0.000000 0.500000 Zn
0.333333 0.333333 0.000000 Zn
0.333333 0.333333 0.500000 Zn
0.333333 0.666667 0.000000 Zn
0.333333 0.666667 0.500000 Zn
0.666667 0.000000 0.000000 Zn
0.666667 0.000000 0.500000 Zn
0.666667 0.333333 0.000000 Zn
0.666667 0.333333 0.500000 Zn
0.666667 0.666667 0.000000 Zn
0.666667 0.666667 0.500000 Zn
1.000000 0.000000 0.000000 Zn
1.000000 0.000000 0.500000 Zn
1.000000 0.333333 0.000000 Zn
1.000000 0.333333 0.500000 Zn
1.000000 0.666667 0.000000 Zn
1.000000 0.666667 0.500000 Zn
0.166667 0.166667 0.250000 Zn
0.166667 0.166667 0.750000 Zn
0.166667 0.500000 0.250000 Zn
0.166667 0.500000 0.750000 Zn
0.166667 0.833333 0.250000 Zn
0.166667 0.833333 0.750000 Zn
0.500000 0.166667 0.250000 Zn
0.500000 0.166667 0.750000 Zn
0.500000 0.500000 0.250000 Zn
0.500000 0.500000 0.750000 Zn
0.500000 0.833333 0.250000 Zn
0.500000 0.833333 0.750000 Zn
0.833333 0.166667 0.250000 Zn
0.833333 0.166667 0.750000 Zn
0.833333 0.500000 0.250000 Zn
0.833333 0.500000 0.750000 Zn
0.833333 0.833333 0.250000 Zn
0.833333 0.833333 0.750000 Zn
0.000000 0.333333 0.168784 Ca
0.000000 0.333333 0.668784 Ca
0.000000 0.666667 0.168784 Ca
0.000000 0.666667 0.668784 Ca
0.000000 1.000000 0.168784 Ca
0.000000 1.000000 0.668784 Ca
0.333333 0.333333 0.168784 Ca
0.333333 0.333333 0.668784 Ca
0.333333 0.666667 0.168784 Ca
0.333333 0.666667 0.668784 Ca
0.333333 1.000000 0.168784 Ca
0.333333 1.000000 0.668784 Ca
0.666667 0.333333 0.168784 Ca
0.666667 0.333333 0.668784 Ca
0.666667 0.666667 0.168784 Ca
0.666667 0.666667 0.668784 Ca
0.666667 1.000000 0.168784 Ca
0.666667 1.000000 0.668784 Ca
0.000000 0.000000 0.331216 Ca
0.000000 0.000000 0.831216 Ca
0.000000 0.333333 0.331216 Ca
0.000000 0.333333 0.831216 Ca
0.000000 0.666667 0.331216 Ca
0.000000 0.666667 0.831216 Ca
0.333333 0.000000 0.331216 Ca
0.333333 0.000000 0.831216 Ca
0.333333 0.333333 0.331216 Ca
0.333333 0.333333 0.831216 Ca
0.333333 0.666667 0.331216 Ca
0.333333 0.666667 0.831216 Ca
0.666667 0.000000 0.331216 Ca
0.666667 0.000000 0.831216 Ca
0.666667 0.333333 0.331216 Ca
0.666667 0.333333 0.831216 Ca
0.666667 0.666667 0.331216 Ca
0.666667 0.666667 0.831216 Ca
0.166667 0.166667 0.418784 Ca
0.166667 0.166667 0.918784 Ca
0.166667 0.500000 0.418784 Ca
0.166667 0.500000 0.918784 Ca
0.166667 0.833333 0.418784 Ca
0.166667 0.833333 0.918784 Ca
0.500000 0.166667 0.418784 Ca
0.500000 0.166667 0.918784 Ca
0.500000 0.500000 0.418784 Ca
0.500000 0.500000 0.918784 Ca
0.500000 0.833333 0.418784 Ca
0.500000 0.833333 0.918784 Ca
0.833333 0.166667 0.418784 Ca
0.833333 0.166667 0.918784 Ca
0.833333 0.500000 0.418784 Ca
0.833333 0.500000 0.918784 Ca
0.833333 0.833333 0.418784 Ca
0.833333 0.833333 0.918784 Ca
0.166667 0.166667 0.081216 Ca
0.166667 0.166667 0.581216 Ca
0.166667 0.500000 0.081216 Ca
0.166667 0.500000 0.581216 Ca
0.166667 0.833333 0.081216 Ca
0.166667 0.833333 0.581216 Ca
0.500000 0.166667 0.081216 Ca
0.500000 0.166667 0.581216 Ca
0.500000 0.500000 0.081216 Ca
0.500000 0.500000 0.581216 Ca
0.500000 0.833333 0.081216 Ca
0.500000 0.833333 0.581216 Ca
0.833333 0.166667 0.081216 Ca
0.833333 0.166667 0.581216 Ca
0.833333 0.500000 0.081216 Ca
0.833333 0.500000 0.581216 Ca
0.833333 0.833333 0.081216 Ca
0.833333 0.833333 0.581216 Ca
0.333333 0.000000 0.072888 N
0.333333 0.000000 0.572888 N
0.333333 0.333333 0.072888 N
0.333333 0.333333 0.572888 N
0.333333 0.666667 0.072888 N
0.333333 0.666667 0.572888 N
0.666667 0.000000 0.072888 N
0.666667 0.000000 0.572888 N
0.666667 0.333333 0.072888 N
0.666667 0.333333 0.572888 N
0.666667 0.666667 0.072888 N
0.666667 0.666667 0.572888 N
1.000000 0.000000 0.072888 N
1.000000 0.000000 0.572888 N
1.000000 0.333333 0.072888 N
1.000000 0.333333 0.572888 N
1.000000 0.666667 0.072888 N
1.000000 0.666667 0.572888 N
0.333333 0.000000 0.427112 N
0.333333 0.000000 0.927112 N
0.333333 0.333333 0.927112 N
0.333333 0.666667 0.427112 N
0.333333 0.666667 0.927112 N
0.666667 0.000000 0.427112 N
0.666667 0.000000 0.927112 N
0.666667 0.333333 0.427112 N
0.666667 0.333333 0.927112 N
0.666667 0.666667 0.427112 N
0.666667 0.666667 0.927112 N
1.000000 0.000000 0.427112 N
1.000000 0.000000 0.927112 N
1.000000 0.333333 0.427112 N
1.000000 0.333333 0.927112 N
1.000000 0.666667 0.427112 N
1.000000 0.666667 0.927112 N
0.166667 0.166667 0.322888 N
0.166667 0.166667 0.822888 N
0.166667 0.500000 0.322888 N
0.166667 0.500000 0.822888 N
0.166667 0.833333 0.322888 N
0.166667 0.833333 0.822888 N
0.500000 0.166667 0.322888 N
0.500000 0.166667 0.822888 N
0.500000 0.500000 0.322888 N
0.500000 0.500000 0.822888 N
0.500000 0.833333 0.322888 N
0.500000 0.833333 0.822888 N
0.833333 0.166667 0.322888 N
0.833333 0.166667 0.822888 N
0.833333 0.500000 0.322888 N
0.833333 0.500000 0.822888 N
0.833333 0.833333 0.322888 N
0.833333 0.833333 0.822888 N
0.166667 0.166667 0.177112 N
0.166667 0.166667 0.677112 N
0.166667 0.500000 0.177112 N
0.166667 0.500000 0.677112 N
0.166667 0.833333 0.177112 N
0.166667 0.833333 0.677112 N
0.500000 0.166667 0.177112 N
0.500000 0.166667 0.677112 N
0.500000 0.500000 0.177112 N
0.500000 0.500000 0.677112 N
0.500000 0.833333 0.177112 N
0.500000 0.833333 0.677112 N
0.833333 0.166667 0.177112 N
0.833333 0.166667 0.677112 N
0.833333 0.500000 0.177112 N
0.833333 0.500000 0.677112 N
0.833333 0.833333 0.177112 N
0.833333 0.833333 0.677112 N
