Sr18 Zn36 N36                           
   1.00000000000000     
    10.6023810613228573    0.0001643641251089    0.0000946916874746
    -5.3010383380487225    9.1814090423624499   -0.0002412206258309
     0.0001160412998918   -0.0002652089697687   12.4385180312405677
   Sr   Zn   N 
    18    36    35
Direct
  0.3358607628780774  0.3305819209117047  0.0039414389743229
  0.3323146701160340  0.3344363839087094  0.5016782303827938
  0.3358915549574419  0.6718071538637389  0.0034718791493944
  0.3323617078320282  0.6647655191816000  0.5024171741527752
  0.3331259188560836  0.9999800788185667  0.9998494003100973
  0.3335840868524684  0.0005214959830511  0.4984789770384523
  0.6666520849536184  0.3333115533458084  0.0004514436751037
  0.6665509905811362  0.3331149960736468  0.4982560101091735
  0.6662022536134486  0.6663794169006465  0.0004045103458239
  0.6666111986926069  0.6667376557762168  0.4996367623453466
  0.6667699137234067  0.9999526409569981  0.9998722618778331
  0.6669237960032746  0.0005017312780566  0.4984350548271905
  0.9946890428739792  0.3305860374141858  0.0039423332136295
  0.0019351845289606  0.3341878570406607  0.5019068942448115
  0.0001454476723595  0.6664321688580088  0.0003562149355787
  0.0001273560627624  0.6667620393583178  0.4996883666239000
  0.0000255201512118  0.0000304584705830  0.0006848361619944
  0.0000144979201906  0.9999682824871172  0.4996004418316247
  0.1114488759775440  0.2229715087662996  0.3141829968185590
  0.1067130420893605  0.2134326792383803  0.8114809840075594
  0.1122281287622755  0.5558062669844617  0.3146971196656381
  0.1059354488140087  0.5609420572190587  0.8095780808934592
  0.1100488863304534  0.8876650793618950  0.3137454569372409
  0.1095344789491932  0.8878369145488350  0.8134179127814534
  0.4439349729762583  0.2229326273305077  0.3137147936671028
  0.4447316012399583  0.2224076492009459  0.8134812609334290
  0.4435239881279713  0.5557595216762650  0.3146678218222903
  0.4549230423273443  0.5608991737623512  0.8095839923926889
  0.4436955753217262  0.8874077314036128  0.3146225630401815
  0.4449484123913763  0.8899897219428041  0.8134631650039239
  0.7789976246271380  0.2229175280129425  0.3137167987724538
  0.7778730976156396  0.2223741912561508  0.8135046897133975
  0.7779824212181126  0.5558234344794073  0.3136792151020344
  0.7780832226740344  0.5561584099357546  0.8136510543158906
  0.7776120118937015  0.8876608105813801  0.3137409340830217
  0.7783022691288863  0.8875984811771218  0.8135582006732847
  0.2215688177359354  0.1093619640798096  0.1867273560082694
  0.2242039166654735  0.1116347385909719  0.6851977312555633
  0.2219312816183887  0.4440669168379543  0.1862438128086836
  0.2218425746045583  0.4439507319811398  0.7014162814470026
  0.2215431995264936  0.7776514041784353  0.1865573568426200
  0.2247898365904888  0.7815163110741921  0.6850588947866001
  0.5550694089529244  0.1101654257385718  0.1865516187440903
  0.5562199614120189  0.1122064401381380  0.6852974420870837
  0.5558943849866438  0.4456343822155446  0.1867037001806935
  0.5567398544790336  0.4432292457081033  0.6849257569802560
  0.5560820912146838  0.7776509765225796  0.1865688739933873
  0.5566768809002554  0.7814662351897965  0.6850786646548670
  0.8877900445509184  0.1093956383369417  0.1867255670700558
  0.8868822687942028  0.1099480715162855  0.6857611078568340
  0.8897529367476054  0.4456725392343301  0.1867020289918955
  0.8863948813959794  0.4431458091011677  0.6849349631547099
  0.8883539419015349  0.7766971624720966  0.1856569410700217
  0.8884447057775660  0.7768111296090652  0.6854010649588389
  0.1110978999293479  0.2222520727436148  0.1376214322761626
  0.1111928972780518  0.2224598943133813  0.6395273529261303
  0.1115258711168963  0.5553064613870831  0.1374342026589019
  0.1112647001175517  0.5558548352174597  0.6393459521525671
  0.1107893034302592  0.8882601015255531  0.1383322534285298
  0.1114622643865602  0.8893450196521400  0.6381113392759872
  0.4441047624043790  0.2223479520908214  0.1372114601376992
  0.4448913001019719  0.2225848400735444  0.6378628096211187
  0.4437427886024068  0.5552955026779998  0.1374568939705867
  0.4444950505770962  0.5558403375634384  0.6393649140465456
  0.4439954890357356  0.8880303805102159  0.1370942655463807
  0.4450115144480478  0.8900024770566830  0.6377156329924176
  0.7782182837686946  0.2223593121044374  0.1372104962016678
  0.7777899884044714  0.2223148900306953  0.6379842031181724
  0.7776578259802989  0.5553144923620863  0.1382049627243731
  0.7775981894391890  0.5551732878894811  0.6378399439373155
  0.7774532384660731  0.8882749949814226  0.1383332904303387
  0.7776969732887693  0.8889081994580863  0.6380323733144451
  0.2220244764131465  0.1112098936853840  0.3610988512930646
  0.2221567910583389  0.1109557870736211  0.8613236641645159
  0.2222267726812532  0.4445159905058205  0.3617583161348321
  0.2222686592402283  0.7773780454392636  0.3613581538231472
  0.2223573973107946  0.7779508440125511  0.8611925041703472
  0.5555298323834919  0.1110678004538528  0.3599265655571742
  0.5557114790525191  0.1114265129099010  0.8613441658858392
  0.5551092596037250  0.4445733642990461  0.3611299604615112
  0.5556391931296361  0.4445611420085314  0.8612896918692030
  0.5550519722047085  0.7773154880460780  0.3613462242447909
  0.5555826259689098  0.7779695213396565  0.8611818144181456
  0.8891360335637373  0.1111800948301465  0.3611086362563043
  0.8887554369841268  0.1108310505961683  0.8614008267401729
  0.8894957100609346  0.4445847523412496  0.3611516682709706
  0.8888993417891626  0.4445489562875977  0.8613017554505973
  0.8886884866723435  0.7773780489879485  0.3616831588261036
  0.8886731145183546  0.7773363555141160  0.8611228299590366
 
  0.00000000E+00  0.00000000E+00  0.00000000E+00
  0.00000000E+00  0.00000000E+00  0.00000000E+00
  0.00000000E+00  0.00000000E+00  0.00000000E+00
  0.00000000E+00  0.00000000E+00  0.00000000E+00
  0.00000000E+00  0.00000000E+00  0.00000000E+00
  0.00000000E+00  0.00000000E+00  0.00000000E+00
  0.00000000E+00  0.00000000E+00  0.00000000E+00
  0.00000000E+00  0.00000000E+00  0.00000000E+00
  0.00000000E+00  0.00000000E+00  0.00000000E+00
  0.00000000E+00  0.00000000E+00  0.00000000E+00
  0.00000000E+00  0.00000000E+00  0.00000000E+00
  0.00000000E+00  0.00000000E+00  0.00000000E+00
  0.00000000E+00  0.00000000E+00  0.00000000E+00
  0.00000000E+00  0.00000000E+00  0.00000000E+00
  0.00000000E+00  0.00000000E+00  0.00000000E+00
  0.00000000E+00  0.00000000E+00  0.00000000E+00
  0.00000000E+00  0.00000000E+00  0.00000000E+00
  0.00000000E+00  0.00000000E+00  0.00000000E+00
  0.00000000E+00  0.00000000E+00  0.00000000E+00
  0.00000000E+00  0.00000000E+00  0.00000000E+00
  0.00000000E+00  0.00000000E+00  0.00000000E+00
  0.00000000E+00  0.00000000E+00  0.00000000E+00
  0.00000000E+00  0.00000000E+00  0.00000000E+00
  0.00000000E+00  0.00000000E+00  0.00000000E+00
  0.00000000E+00  0.00000000E+00  0.00000000E+00
  0.00000000E+00  0.00000000E+00  0.00000000E+00
  0.00000000E+00  0.00000000E+00  0.00000000E+00
  0.00000000E+00  0.00000000E+00  0.00000000E+00
  0.00000000E+00  0.00000000E+00  0.00000000E+00
  0.00000000E+00  0.00000000E+00  0.00000000E+00
  0.00000000E+00  0.00000000E+00  0.00000000E+00
  0.00000000E+00  0.00000000E+00  0.00000000E+00
  0.00000000E+00  0.00000000E+00  0.00000000E+00
  0.00000000E+00  0.00000000E+00  0.00000000E+00
  0.00000000E+00  0.00000000E+00  0.00000000E+00
  0.00000000E+00  0.00000000E+00  0.00000000E+00
  0.00000000E+00  0.00000000E+00  0.00000000E+00
  0.00000000E+00  0.00000000E+00  0.00000000E+00
  0.00000000E+00  0.00000000E+00  0.00000000E+00
  0.00000000E+00  0.00000000E+00  0.00000000E+00
  0.00000000E+00  0.00000000E+00  0.00000000E+00
  0.00000000E+00  0.00000000E+00  0.00000000E+00
  0.00000000E+00  0.00000000E+00  0.00000000E+00
  0.00000000E+00  0.00000000E+00  0.00000000E+00
  0.00000000E+00  0.00000000E+00  0.00000000E+00
  0.00000000E+00  0.00000000E+00  0.00000000E+00
  0.00000000E+00  0.00000000E+00  0.00000000E+00
  0.00000000E+00  0.00000000E+00  0.00000000E+00
  0.00000000E+00  0.00000000E+00  0.00000000E+00
  0.00000000E+00  0.00000000E+00  0.00000000E+00
  0.00000000E+00  0.00000000E+00  0.00000000E+00
  0.00000000E+00  0.00000000E+00  0.00000000E+00
  0.00000000E+00  0.00000000E+00  0.00000000E+00
  0.00000000E+00  0.00000000E+00  0.00000000E+00
  0.00000000E+00  0.00000000E+00  0.00000000E+00
  0.00000000E+00  0.00000000E+00  0.00000000E+00
  0.00000000E+00  0.00000000E+00  0.00000000E+00
  0.00000000E+00  0.00000000E+00  0.00000000E+00
  0.00000000E+00  0.00000000E+00  0.00000000E+00
  0.00000000E+00  0.00000000E+00  0.00000000E+00
  0.00000000E+00  0.00000000E+00  0.00000000E+00
  0.00000000E+00  0.00000000E+00  0.00000000E+00
  0.00000000E+00  0.00000000E+00  0.00000000E+00
  0.00000000E+00  0.00000000E+00  0.00000000E+00
  0.00000000E+00  0.00000000E+00  0.00000000E+00
  0.00000000E+00  0.00000000E+00  0.00000000E+00
  0.00000000E+00  0.00000000E+00  0.00000000E+00
  0.00000000E+00  0.00000000E+00  0.00000000E+00
  0.00000000E+00  0.00000000E+00  0.00000000E+00
  0.00000000E+00  0.00000000E+00  0.00000000E+00
  0.00000000E+00  0.00000000E+00  0.00000000E+00
  0.00000000E+00  0.00000000E+00  0.00000000E+00
  0.00000000E+00  0.00000000E+00  0.00000000E+00
  0.00000000E+00  0.00000000E+00  0.00000000E+00
  0.00000000E+00  0.00000000E+00  0.00000000E+00
  0.00000000E+00  0.00000000E+00  0.00000000E+00
  0.00000000E+00  0.00000000E+00  0.00000000E+00
  0.00000000E+00  0.00000000E+00  0.00000000E+00
  0.00000000E+00  0.00000000E+00  0.00000000E+00
  0.00000000E+00  0.00000000E+00  0.00000000E+00
  0.00000000E+00  0.00000000E+00  0.00000000E+00
  0.00000000E+00  0.00000000E+00  0.00000000E+00
  0.00000000E+00  0.00000000E+00  0.00000000E+00
  0.00000000E+00  0.00000000E+00  0.00000000E+00
  0.00000000E+00  0.00000000E+00  0.00000000E+00
  0.00000000E+00  0.00000000E+00  0.00000000E+00
  0.00000000E+00  0.00000000E+00  0.00000000E+00
  0.00000000E+00  0.00000000E+00  0.00000000E+00
  0.00000000E+00  0.00000000E+00  0.00000000E+00
