Sr18 Zn36 N36
1.0
10.582613 -0.000205 -0.000013
-5.291484 9.164705 0.000013
-0.000014 0.000008 12.448017
Sr Zn N
18 36 35
direct
0.333333 0.333333 0.000000 Sr
0.333333 0.333333 0.500000 Sr
0.333333 0.666667 0.000000 Sr
0.333333 0.666667 0.500000 Sr
0.333333 1.000000 0.000000 Sr
0.333333 1.000000 0.500000 Sr
0.666667 0.333333 0.000000 Sr
0.666667 0.333333 0.500000 Sr
0.666667 0.666667 0.000000 Sr
0.666667 0.666667 0.500000 Sr
0.666667 1.000000 0.000000 Sr
0.666667 1.000000 0.500000 Sr
1.000000 0.333333 0.000000 Sr
1.000000 0.333333 0.500000 Sr
1.000000 0.666667 0.000000 Sr
1.000000 0.666667 0.500000 Sr
1.000000 1.000000 0.000000 Sr
1.000000 1.000000 0.500000 Sr
0.111112 0.222222 0.313856 Zn
0.111112 0.222222 0.813856 Zn
0.111112 0.555555 0.313856 Zn
0.111112 0.555555 0.813856 Zn
0.111112 0.888888 0.313856 Zn
0.111112 0.888888 0.813856 Zn
0.444445 0.222222 0.313856 Zn
0.444445 0.222222 0.813856 Zn
0.444445 0.555555 0.313856 Zn
0.444445 0.555555 0.813856 Zn
0.444445 0.888888 0.313856 Zn
0.444445 0.888888 0.813856 Zn
0.777778 0.222222 0.313856 Zn
0.777778 0.222222 0.813856 Zn
0.777778 0.555555 0.313856 Zn
0.777778 0.555555 0.813856 Zn
0.777778 0.888888 0.313856 Zn
0.777778 0.888888 0.813856 Zn
0.222222 0.111112 0.186144 Zn
0.222222 0.111112 0.686144 Zn
0.222222 0.444445 0.186144 Zn
0.222222 0.444445 0.686144 Zn
0.222222 0.777778 0.186144 Zn
0.222222 0.777778 0.686144 Zn
0.555555 0.111112 0.186144 Zn
0.555555 0.111112 0.686144 Zn
0.555555 0.444445 0.186144 Zn
0.555555 0.444445 0.686144 Zn
0.555555 0.777778 0.186144 Zn
0.555555 0.777778 0.686144 Zn
0.888888 0.111112 0.186144 Zn
0.888888 0.111112 0.686144 Zn
0.888888 0.444445 0.186144 Zn
0.888888 0.444445 0.686144 Zn
0.888888 0.777778 0.186144 Zn
0.888888 0.777778 0.686144 Zn
0.111112 0.222221 0.138471 N
0.111112 0.222221 0.638471 N
0.111112 0.555555 0.138471 N
0.111112 0.555555 0.638471 N
0.111112 0.888888 0.138471 N
0.111112 0.888888 0.638471 N
0.444445 0.222221 0.138471 N
0.444445 0.222221 0.638471 N
0.444445 0.555555 0.138471 N
0.444445 0.555555 0.638471 N
0.444445 0.888888 0.138471 N
0.444445 0.888888 0.638471 N
0.777779 0.222221 0.138471 N
0.777779 0.222221 0.638471 N
0.777779 0.555555 0.138471 N
0.777779 0.555555 0.638471 N
0.777779 0.888888 0.138471 N
0.777779 0.888888 0.638471 N
0.222221 0.111112 0.361529 N
0.222221 0.111112 0.861529 N
0.222221 0.444445 0.361529 N
0.222221 0.777779 0.361529 N
0.222221 0.777779 0.861529 N
0.555555 0.111112 0.361529 N
0.555555 0.111112 0.861529 N
0.555555 0.444445 0.361529 N
0.555555 0.444445 0.861529 N
0.555555 0.777779 0.361529 N
0.555555 0.777779 0.861529 N
0.888888 0.111112 0.361529 N
0.888888 0.111112 0.861529 N
0.888888 0.444445 0.361529 N
0.888888 0.444445 0.861529 N
0.888888 0.777779 0.361529 N
0.888888 0.777779 0.861529 N
