Sr72 Zn36 N72                           
   1.00000000000000     
    11.5533079999999995    0.0000000000000000    0.0000000000000000
     0.0000000000000000   11.5533079999999995    0.0000000000000000
    -0.0000010000000000    0.0000000000000000   25.5426430000000018
   Sr   Zn   N 
    72    35    72
Direct
  0.0001358228393968  0.3333351982562718  0.1707594724229722
  0.0004571419797799  0.3333358951790260  0.6709336723283883
  0.9999016736948292  0.6667613632340021  0.1709727217123671
  0.0001847591287785  0.6664808930078152  0.6707953251238479
  0.9999046912622092  0.9999043832510708  0.1709751759157214
  0.0001865889755308  0.0001867523063481  0.6707969002987895
  0.3333353068616489  0.3333351533175275  0.1704290913302060
  0.3333357081651016  0.3333355666409190  0.6751749965789244
  0.3333354756121807  0.6665256528109538  0.1707554553328450
  0.3333359199618542  0.6662069227056975  0.6709312802171965
  0.3333353494820912  0.0001355732191257  0.1707595479055684
  0.3333358637882284  0.0004573247318334  0.6709337023619639
  0.6665259318837826  0.3333353116917692  0.1707554888569902
  0.6662068276546975  0.3333359511743481  0.6709309707398248
  0.6667644898615919  0.6667643032654738  0.1709704363149953
  0.6664828862387395  0.6664828880527125  0.6707938638343833
  0.6667614056363718  0.9999015351899132  0.1709727640576588
  0.6664810205165494  0.0001847972627473  0.6707952520592713
  0.0002057174388739  0.0002055132310730  0.3292270827053869
  0.9998991233551848  0.9998991293797275  0.8290272672475396
  0.0004133582006887  0.3333358988890751  0.3290485315011793
  0.0001147452537396  0.3333352415544226  0.8292560742757757
  0.0002028546497144  0.6664604456976519  0.3292291239898901
  0.9998970041115385  0.6667682514941546  0.8290291872658599
  0.3333358984054229  0.0004132824039402  0.3290486127105439
  0.3333353717015157  0.0001148042756114  0.8292561458580678
  0.3333353838538358  0.3333352245240491  0.3248194184852196
  0.3333355669279428  0.3333354421388961  0.8296135689077602
  0.3333359423582678  0.6662478103768663  0.3290531231651528
  0.3333355207624109  0.6665495044485894  0.8292593007909588
  0.6664606092347256  0.0002027647370753  0.3292290761928811
  0.6667683523298962  0.9998969204883323  0.8290292397397891
  0.6662482144633941  0.3333359309988495  0.3290528349362560
  0.6665494934679259  0.3333353854255563  0.8292593374783408
  0.6664634779517584  0.6664632202406153  0.3292309754975662
  0.6667705464177587  0.6667705391339780  0.8290309988441180
  0.1695268009344986  0.1695268356719737  0.4205775023520246
  0.1665353337524351  0.1665350819993137  0.9213643101283679
  0.1695273053117816  0.4971451531627338  0.4205773678184244
  0.1665346287432499  0.5001355296656840  0.9213654343824444
  0.1664927820115167  0.8333345243466113  0.4209556823258893
  0.1665799524701157  0.8333353317643599  0.9208524311361828
  0.4971452471201303  0.1695270226020966  0.4205774573326551
  0.5001356714829086  0.1665344094986239  0.9213653782448574
  0.4971447308410575  0.4971449547706825  0.4205775175341486
  0.5001363893811259  0.5001362083865359  0.9213665359457295
  0.5001799720425453  0.8333344225782611  0.4209550199433068
  0.5000902469602053  0.8333353747474206  0.9208536324249224
  0.8333346847296141  0.1664931350859788  0.4209556439550184
  0.8333354253736687  0.1665796892414875  0.9208524209932776
  0.8333345770053810  0.5001799244741250  0.4209547242717946
  0.8333354645659838  0.5000901177303660  0.9208536877710642
  0.8333359668741593  0.8333358272667368  0.4212301123092388
  0.8333365942043187  0.8333364665609437  0.9209250316091655
  0.1665398788254251  0.1665396824750331  0.0786567265106441
  0.1695254136176843  0.1695256919748402  0.5794187585148052
  0.1665390188787939  0.5001307048241515  0.0786558783991040
  0.1695258697037119  0.4971466308558732  0.5794194764893490
  0.1665888049623732  0.8333349235860865  0.0791514387121310
  0.1665280572497210  0.8333349854198886  0.5790391655177842
  0.5001309077223297  0.1665388881507255  0.0786559228111656
  0.4971468968845727  0.1695257864341642  0.5794192448709907
  0.5001317797240716  0.5001315032825957  0.0786550429004791
  0.4971464240684327  0.4971465247545410  0.5794197735041422
  0.5000812335575517  0.8333349603360674  0.0791498952210290
  0.5001448273703915  0.8333348755692498  0.5790395765197545
  0.8333350984341195  0.1665884812640002  0.0791514311037957
  0.8333350189849611  0.1665285097165068  0.5790389668901668
  0.8333351277340881  0.5000811231039819  0.0791497997024493
  0.8333349100895404  0.5001449146092725  0.5790396527239210
  0.8333365694632988  0.8333364843769289  0.0790976259742422
  0.8333358026706250  0.8333357007982940  0.5787846414788262
  0.3333217047242698  0.9988660046491091  0.0000135489882425
  0.3333583627590713  0.9992320436470550  0.4999654759991046
  0.3333342973611693  0.3333337153854572  0.9999888807042510
  0.3333215475552294  0.6678044422534128  0.0000135634056022
  0.3333545244194127  0.6674371871289821  0.4999667055470169
  0.6674348731997384  0.9992378814430367  0.0000113244724318
  0.6658084108625602  0.0008609829923856  0.4999999933301993
  0.6678044107897776  0.3333193649588964  0.0000135944198902
  0.6674372417041141  0.3333626463510697  0.4999662519796928
  0.6674338409273091  0.6674339389610822  0.0000112798745278
  0.6658085818902251  0.6658082249797346  0.4999998387729434
  0.9992372742320157  0.9992369083588528  0.0000113597758684
  0.0008612836500461  0.0008614840537149  0.5000001449821525
  0.9988662162624635  0.3333195480131224  0.0000135439735800
  0.9992320727055741  0.3333664098406430  0.4999654437580148
  0.9992381771572099  0.6674350348855782  0.0000113171436951
  0.0008606983088058  0.6658081305715697  0.4999999972662224
  0.1651564071954894  0.1651562192328697  0.2488652824670581
  0.1651373891624317  0.1651373325845213  0.7511399779357788
  0.1651565300909184  0.5015139522270289  0.2488651959664949
  0.1651362234523788  0.5015340258143297  0.7511409254804562
  0.1675921067797503  0.8332652121516446  0.2501867558670696
  0.1676059907718042  0.8332899984300823  0.7498019186325422
  0.5015139538134363  0.1651563018804652  0.2488651775048538
  0.5015341609835886  0.1651361650069845  0.7511408907218495
  0.5015138733168172  0.5015139068730363  0.2488650815040288
  0.5015353305180668  0.5015351987949828  0.7511418404395442
  0.4990755493632761  0.8332672766086375  0.2501856853725570
  0.4990623023955933  0.8332925205532291  0.7498021210425065
  0.8332674516159884  0.1675924022140265  0.2501866822297742
  0.8332879467772045  0.1676058815133104  0.7498018867905003
  0.8332693176101387  0.4990751244650085  0.2501855448107975
  0.8332904256817741  0.4990622927106969  0.7498021528180416
  0.8333285553776193  0.8333289322183433  0.2500395982969081
  0.8333298798201199  0.8333298192571377  0.7499660689893020
  0.3333344420894733  0.9995512615510833  0.0712727295548419
  0.3333382075426101  0.0003928824786570  0.5711784935256716
  0.3333358276215819  0.3333356332569224  0.0711863275126063
  0.3333363974198136  0.3333362806505917  0.5826170590750479
  0.3333344224601476  0.6671206743860481  0.0712719343217216
  0.3333378000051326  0.6662789096703250  0.5711789860998309
  0.6668739797417231  0.9997981702174883  0.0713190713225131
  0.6663592632617394  0.0003128780723358  0.5713203669760532
  0.6671207988262537  0.3333340850154158  0.0712719579008478
  0.6662788921742262  0.3333386148882909  0.5711785069331441
  0.6668745977225043  0.6668745514415164  0.0713185649872230
  0.6663590226917293  0.6663590687446330  0.5713199839048215
  0.9997990563360517  0.9997987357919698  0.0713195836850389
  0.0003125224577545  0.0003126824370199  0.5713207890236092
  0.9995514626918904  0.3333341129634064  0.0712727090740941
  0.0003927787648905  0.3333390136369303  0.5711783876785361
  0.9997984415082257  0.6668739766351450  0.0713190585553534
  0.0003127552810156  0.6663592678843173  0.5713203937684099
  0.3333382964900480  0.0004117064463998  0.4287598380000404
  0.3333344372285652  0.9995259595948269  0.9287498987130576
  0.3333361606327117  0.3333360544260060  0.4173854969240551
  0.3333355656846493  0.3333353313718632  0.9287858322841558
  0.3333379103829017  0.6662601558219521  0.4287617345830839
  0.3333344279652906  0.6671466262421433  0.9287505937671412
  0.6663591822818802  0.0003126526483754  0.4286779993522529
  0.6668912060401766  0.9997810822220004  0.9287035459671102
  0.6662601302208415  0.3333386177453974  0.4287612421007694
  0.6671466991098356  0.3333340687162263  0.9287506229278506
  0.6663595053078097  0.6663590960652641  0.4286782107034099
  0.6668919298631124  0.6668918457726960  0.9287038781907526
  0.0003125458975930  0.0003128449486880  0.4286777681585434
  0.9997820259465229  0.9997818026454937  0.9287031621428454
  0.0004116159202425  0.3333390003778263  0.4287597025866248
  0.9995261481515954  0.3333340858885236  0.9287498837206272
  0.0003123193048253  0.6663588012407118  0.4286779913614112
  0.9997813074605020  0.6668911196165652  0.9287035356342415
  0.1651231581057999  0.1651229528976259  0.3200102708623049
  0.1666158617373839  0.1666158237695115  0.8223775110489910
  0.1651228580337829  0.5015443499750845  0.3200104499961753
  0.1666154645002607  0.5000525208655588  0.8223786016360535
  0.1673768986583610  0.8333222508199682  0.3214833980765590
  0.1668921433903705  0.8333269804506713  0.8211431126990405
  0.5015444344104409  0.1651225985492744  0.3200104372823134
  0.5000526077579366  0.1666154239332442  0.8223785632774465
  0.5015447976054546  0.5015447630950831  0.3200106284101807
  0.5000531504421133  0.5000530629092665  0.8223796593923680
  0.4992928458773633  0.8333226639285201  0.3214822843044018
  0.4997775207599773  0.8333274750890496  0.8211435978695718
  0.8333228044251157  0.1673767078164801  0.3214832668538605
  0.8333266695292849  0.1668920123487041  0.8211430460872506
  0.8333231762353250  0.4992927868822861  0.3214820572165209
  0.8333271573700145  0.4997774521646576  0.8211435931433684
  0.8333344446664768  0.8333344827022771  0.3213321154901010
  0.8333345178480300  0.8333344053608300  0.8213231866811839
  0.1666399167517341  0.1666398286008501  0.1776300574836327
  0.1651133706664751  0.1651134409188160  0.6799911888858716
  0.1666393965171835  0.5000270724740830  0.1776297475236817
  0.1651127417009306  0.5015550527637558  0.6799919859139365
  0.1668906132380812  0.8333232265492114  0.1788391729040981
  0.1674098769457331  0.8333263700879456  0.6784997971199616
  0.5000273167809652  0.1666393892197533  0.1776297426595903
  0.5015551572283670  0.1651127640660377  0.6799919078197760
  0.5000279908505973  0.5000276655261544  0.1776294227658184
  0.5015558651140566  0.5015558085796314  0.6799926950787523
  0.4997786677332385  0.8333236542243228  0.1788378269721562
  0.4992603600625429  0.8333268665078535  0.6785000893862048
  0.8333236840272136  0.1668903083544251  0.1788390556160309
  0.8333259520210063  0.1674099214838520  0.6784996967909223
  0.8333240694356192  0.4997787060185814  0.1788376526957762
  0.8333264425594535  0.4992603233343686  0.6785000879081835
  0.8333341884089478  0.8333342118244076  0.1786829030646473
  0.8333344247088021  0.8333343575626202  0.6786813714949744
 
  0.00000000E+00  0.00000000E+00  0.00000000E+00
  0.00000000E+00  0.00000000E+00  0.00000000E+00
  0.00000000E+00  0.00000000E+00  0.00000000E+00
  0.00000000E+00  0.00000000E+00  0.00000000E+00
  0.00000000E+00  0.00000000E+00  0.00000000E+00
  0.00000000E+00  0.00000000E+00  0.00000000E+00
  0.00000000E+00  0.00000000E+00  0.00000000E+00
  0.00000000E+00  0.00000000E+00  0.00000000E+00
  0.00000000E+00  0.00000000E+00  0.00000000E+00
  0.00000000E+00  0.00000000E+00  0.00000000E+00
  0.00000000E+00  0.00000000E+00  0.00000000E+00
  0.00000000E+00  0.00000000E+00  0.00000000E+00
  0.00000000E+00  0.00000000E+00  0.00000000E+00
  0.00000000E+00  0.00000000E+00  0.00000000E+00
  0.00000000E+00  0.00000000E+00  0.00000000E+00
  0.00000000E+00  0.00000000E+00  0.00000000E+00
  0.00000000E+00  0.00000000E+00  0.00000000E+00
  0.00000000E+00  0.00000000E+00  0.00000000E+00
  0.00000000E+00  0.00000000E+00  0.00000000E+00
  0.00000000E+00  0.00000000E+00  0.00000000E+00
  0.00000000E+00  0.00000000E+00  0.00000000E+00
  0.00000000E+00  0.00000000E+00  0.00000000E+00
  0.00000000E+00  0.00000000E+00  0.00000000E+00
  0.00000000E+00  0.00000000E+00  0.00000000E+00
  0.00000000E+00  0.00000000E+00  0.00000000E+00
  0.00000000E+00  0.00000000E+00  0.00000000E+00
  0.00000000E+00  0.00000000E+00  0.00000000E+00
  0.00000000E+00  0.00000000E+00  0.00000000E+00
  0.00000000E+00  0.00000000E+00  0.00000000E+00
  0.00000000E+00  0.00000000E+00  0.00000000E+00
  0.00000000E+00  0.00000000E+00  0.00000000E+00
  0.00000000E+00  0.00000000E+00  0.00000000E+00
  0.00000000E+00  0.00000000E+00  0.00000000E+00
  0.00000000E+00  0.00000000E+00  0.00000000E+00
  0.00000000E+00  0.00000000E+00  0.00000000E+00
  0.00000000E+00  0.00000000E+00  0.00000000E+00
  0.00000000E+00  0.00000000E+00  0.00000000E+00
  0.00000000E+00  0.00000000E+00  0.00000000E+00
  0.00000000E+00  0.00000000E+00  0.00000000E+00
  0.00000000E+00  0.00000000E+00  0.00000000E+00
  0.00000000E+00  0.00000000E+00  0.00000000E+00
  0.00000000E+00  0.00000000E+00  0.00000000E+00
  0.00000000E+00  0.00000000E+00  0.00000000E+00
  0.00000000E+00  0.00000000E+00  0.00000000E+00
  0.00000000E+00  0.00000000E+00  0.00000000E+00
  0.00000000E+00  0.00000000E+00  0.00000000E+00
  0.00000000E+00  0.00000000E+00  0.00000000E+00
  0.00000000E+00  0.00000000E+00  0.00000000E+00
  0.00000000E+00  0.00000000E+00  0.00000000E+00
  0.00000000E+00  0.00000000E+00  0.00000000E+00
  0.00000000E+00  0.00000000E+00  0.00000000E+00
  0.00000000E+00  0.00000000E+00  0.00000000E+00
  0.00000000E+00  0.00000000E+00  0.00000000E+00
  0.00000000E+00  0.00000000E+00  0.00000000E+00
  0.00000000E+00  0.00000000E+00  0.00000000E+00
  0.00000000E+00  0.00000000E+00  0.00000000E+00
  0.00000000E+00  0.00000000E+00  0.00000000E+00
  0.00000000E+00  0.00000000E+00  0.00000000E+00
  0.00000000E+00  0.00000000E+00  0.00000000E+00
  0.00000000E+00  0.00000000E+00  0.00000000E+00
  0.00000000E+00  0.00000000E+00  0.00000000E+00
  0.00000000E+00  0.00000000E+00  0.00000000E+00
  0.00000000E+00  0.00000000E+00  0.00000000E+00
  0.00000000E+00  0.00000000E+00  0.00000000E+00
  0.00000000E+00  0.00000000E+00  0.00000000E+00
  0.00000000E+00  0.00000000E+00  0.00000000E+00
  0.00000000E+00  0.00000000E+00  0.00000000E+00
  0.00000000E+00  0.00000000E+00  0.00000000E+00
  0.00000000E+00  0.00000000E+00  0.00000000E+00
  0.00000000E+00  0.00000000E+00  0.00000000E+00
  0.00000000E+00  0.00000000E+00  0.00000000E+00
  0.00000000E+00  0.00000000E+00  0.00000000E+00
  0.00000000E+00  0.00000000E+00  0.00000000E+00
  0.00000000E+00  0.00000000E+00  0.00000000E+00
  0.00000000E+00  0.00000000E+00  0.00000000E+00
  0.00000000E+00  0.00000000E+00  0.00000000E+00
  0.00000000E+00  0.00000000E+00  0.00000000E+00
  0.00000000E+00  0.00000000E+00  0.00000000E+00
  0.00000000E+00  0.00000000E+00  0.00000000E+00
  0.00000000E+00  0.00000000E+00  0.00000000E+00
  0.00000000E+00  0.00000000E+00  0.00000000E+00
  0.00000000E+00  0.00000000E+00  0.00000000E+00
  0.00000000E+00  0.00000000E+00  0.00000000E+00
  0.00000000E+00  0.00000000E+00  0.00000000E+00
  0.00000000E+00  0.00000000E+00  0.00000000E+00
  0.00000000E+00  0.00000000E+00  0.00000000E+00
  0.00000000E+00  0.00000000E+00  0.00000000E+00
  0.00000000E+00  0.00000000E+00  0.00000000E+00
  0.00000000E+00  0.00000000E+00  0.00000000E+00
  0.00000000E+00  0.00000000E+00  0.00000000E+00
  0.00000000E+00  0.00000000E+00  0.00000000E+00
  0.00000000E+00  0.00000000E+00  0.00000000E+00
  0.00000000E+00  0.00000000E+00  0.00000000E+00
  0.00000000E+00  0.00000000E+00  0.00000000E+00
  0.00000000E+00  0.00000000E+00  0.00000000E+00
  0.00000000E+00  0.00000000E+00  0.00000000E+00
  0.00000000E+00  0.00000000E+00  0.00000000E+00
  0.00000000E+00  0.00000000E+00  0.00000000E+00
  0.00000000E+00  0.00000000E+00  0.00000000E+00
  0.00000000E+00  0.00000000E+00  0.00000000E+00
  0.00000000E+00  0.00000000E+00  0.00000000E+00
  0.00000000E+00  0.00000000E+00  0.00000000E+00
  0.00000000E+00  0.00000000E+00  0.00000000E+00
  0.00000000E+00  0.00000000E+00  0.00000000E+00
  0.00000000E+00  0.00000000E+00  0.00000000E+00
  0.00000000E+00  0.00000000E+00  0.00000000E+00
  0.00000000E+00  0.00000000E+00  0.00000000E+00
  0.00000000E+00  0.00000000E+00  0.00000000E+00
  0.00000000E+00  0.00000000E+00  0.00000000E+00
  0.00000000E+00  0.00000000E+00  0.00000000E+00
  0.00000000E+00  0.00000000E+00  0.00000000E+00
  0.00000000E+00  0.00000000E+00  0.00000000E+00
  0.00000000E+00  0.00000000E+00  0.00000000E+00
  0.00000000E+00  0.00000000E+00  0.00000000E+00
  0.00000000E+00  0.00000000E+00  0.00000000E+00
  0.00000000E+00  0.00000000E+00  0.00000000E+00
  0.00000000E+00  0.00000000E+00  0.00000000E+00
  0.00000000E+00  0.00000000E+00  0.00000000E+00
  0.00000000E+00  0.00000000E+00  0.00000000E+00
  0.00000000E+00  0.00000000E+00  0.00000000E+00
  0.00000000E+00  0.00000000E+00  0.00000000E+00
  0.00000000E+00  0.00000000E+00  0.00000000E+00
  0.00000000E+00  0.00000000E+00  0.00000000E+00
  0.00000000E+00  0.00000000E+00  0.00000000E+00
  0.00000000E+00  0.00000000E+00  0.00000000E+00
  0.00000000E+00  0.00000000E+00  0.00000000E+00
  0.00000000E+00  0.00000000E+00  0.00000000E+00
  0.00000000E+00  0.00000000E+00  0.00000000E+00
  0.00000000E+00  0.00000000E+00  0.00000000E+00
  0.00000000E+00  0.00000000E+00  0.00000000E+00
  0.00000000E+00  0.00000000E+00  0.00000000E+00
  0.00000000E+00  0.00000000E+00  0.00000000E+00
  0.00000000E+00  0.00000000E+00  0.00000000E+00
  0.00000000E+00  0.00000000E+00  0.00000000E+00
  0.00000000E+00  0.00000000E+00  0.00000000E+00
  0.00000000E+00  0.00000000E+00  0.00000000E+00
  0.00000000E+00  0.00000000E+00  0.00000000E+00
  0.00000000E+00  0.00000000E+00  0.00000000E+00
  0.00000000E+00  0.00000000E+00  0.00000000E+00
  0.00000000E+00  0.00000000E+00  0.00000000E+00
  0.00000000E+00  0.00000000E+00  0.00000000E+00
  0.00000000E+00  0.00000000E+00  0.00000000E+00
  0.00000000E+00  0.00000000E+00  0.00000000E+00
  0.00000000E+00  0.00000000E+00  0.00000000E+00
  0.00000000E+00  0.00000000E+00  0.00000000E+00
  0.00000000E+00  0.00000000E+00  0.00000000E+00
  0.00000000E+00  0.00000000E+00  0.00000000E+00
  0.00000000E+00  0.00000000E+00  0.00000000E+00
  0.00000000E+00  0.00000000E+00  0.00000000E+00
  0.00000000E+00  0.00000000E+00  0.00000000E+00
  0.00000000E+00  0.00000000E+00  0.00000000E+00
  0.00000000E+00  0.00000000E+00  0.00000000E+00
  0.00000000E+00  0.00000000E+00  0.00000000E+00
  0.00000000E+00  0.00000000E+00  0.00000000E+00
  0.00000000E+00  0.00000000E+00  0.00000000E+00
  0.00000000E+00  0.00000000E+00  0.00000000E+00
  0.00000000E+00  0.00000000E+00  0.00000000E+00
  0.00000000E+00  0.00000000E+00  0.00000000E+00
  0.00000000E+00  0.00000000E+00  0.00000000E+00
  0.00000000E+00  0.00000000E+00  0.00000000E+00
  0.00000000E+00  0.00000000E+00  0.00000000E+00
  0.00000000E+00  0.00000000E+00  0.00000000E+00
  0.00000000E+00  0.00000000E+00  0.00000000E+00
  0.00000000E+00  0.00000000E+00  0.00000000E+00
  0.00000000E+00  0.00000000E+00  0.00000000E+00
  0.00000000E+00  0.00000000E+00  0.00000000E+00
  0.00000000E+00  0.00000000E+00  0.00000000E+00
  0.00000000E+00  0.00000000E+00  0.00000000E+00
  0.00000000E+00  0.00000000E+00  0.00000000E+00
  0.00000000E+00  0.00000000E+00  0.00000000E+00
  0.00000000E+00  0.00000000E+00  0.00000000E+00
  0.00000000E+00  0.00000000E+00  0.00000000E+00
  0.00000000E+00  0.00000000E+00  0.00000000E+00
  0.00000000E+00  0.00000000E+00  0.00000000E+00
  0.00000000E+00  0.00000000E+00  0.00000000E+00
  0.00000000E+00  0.00000000E+00  0.00000000E+00
  0.00000000E+00  0.00000000E+00  0.00000000E+00
  0.00000000E+00  0.00000000E+00  0.00000000E+00
  0.00000000E+00  0.00000000E+00  0.00000000E+00
