Sr72 Zn36 N72
1.0
11.553308 0.000000 -0.000000
0.000000 11.553308 -0.000000
-0.000001 -0.000000 25.542643
Sr Zn N
72 35 72
direct
0.000000 0.333333 0.170931 Sr
0.000000 0.333333 0.670931 Sr
0.000000 0.666667 0.170931 Sr
0.000000 0.666667 0.670931 Sr
0.000000 1.000000 0.170931 Sr
0.000000 1.000000 0.670931 Sr
0.333333 0.333333 0.170931 Sr
0.333333 0.333333 0.670931 Sr
0.333333 0.666667 0.170931 Sr
0.333333 0.666667 0.670931 Sr
0.333333 1.000000 0.170931 Sr
0.333333 1.000000 0.670931 Sr
0.666667 0.333333 0.170931 Sr
0.666667 0.333333 0.670931 Sr
0.666667 0.666667 0.170931 Sr
0.666667 0.666667 0.670931 Sr
0.666667 1.000000 0.170931 Sr
0.666667 1.000000 0.670931 Sr
0.000000 0.000000 0.329069 Sr
0.000000 0.000000 0.829069 Sr
0.000000 0.333333 0.329069 Sr
0.000000 0.333333 0.829069 Sr
0.000000 0.666667 0.329069 Sr
0.000000 0.666667 0.829069 Sr
0.333333 0.000000 0.329069 Sr
0.333333 0.000000 0.829069 Sr
0.333333 0.333333 0.329069 Sr
0.333333 0.333333 0.829069 Sr
0.333333 0.666667 0.329069 Sr
0.333333 0.666667 0.829069 Sr
0.666667 0.000000 0.329069 Sr
0.666667 0.000000 0.829069 Sr
0.666667 0.333333 0.329069 Sr
0.666667 0.333333 0.829069 Sr
0.666667 0.666667 0.329069 Sr
0.666667 0.666667 0.829069 Sr
0.166667 0.166667 0.420931 Sr
0.166667 0.166667 0.920931 Sr
0.166667 0.500000 0.420931 Sr
0.166667 0.500000 0.920931 Sr
0.166667 0.833333 0.420931 Sr
0.166667 0.833333 0.920931 Sr
0.500000 0.166667 0.420931 Sr
0.500000 0.166667 0.920931 Sr
0.500000 0.500000 0.420931 Sr
0.500000 0.500000 0.920931 Sr
0.500000 0.833333 0.420931 Sr
0.500000 0.833333 0.920931 Sr
0.833333 0.166667 0.420931 Sr
0.833333 0.166667 0.920931 Sr
0.833333 0.500000 0.420931 Sr
0.833333 0.500000 0.920931 Sr
0.833333 0.833333 0.420931 Sr
0.833333 0.833333 0.920931 Sr
0.166667 0.166667 0.079069 Sr
0.166667 0.166667 0.579069 Sr
0.166667 0.500000 0.079069 Sr
0.166667 0.500000 0.579069 Sr
0.166667 0.833333 0.079069 Sr
0.166667 0.833333 0.579069 Sr
0.500000 0.166667 0.079069 Sr
0.500000 0.166667 0.579069 Sr
0.500000 0.500000 0.079069 Sr
0.500000 0.500000 0.579069 Sr
0.500000 0.833333 0.079069 Sr
0.500000 0.833333 0.579069 Sr
0.833333 0.166667 0.079069 Sr
0.833333 0.166667 0.579069 Sr
0.833333 0.500000 0.079069 Sr
0.833333 0.500000 0.579069 Sr
0.833333 0.833333 0.079069 Sr
0.833333 0.833333 0.579069 Sr
0.333333 0.000000 0.000000 Zn
0.333333 0.000000 0.500000 Zn
0.333333 0.333333 0.000000 Zn
0.333333 0.666667 0.000000 Zn
0.333333 0.666667 0.500000 Zn
0.666667 0.000000 0.000000 Zn
0.666667 0.000000 0.500000 Zn
0.666667 0.333333 0.000000 Zn
0.666667 0.333333 0.500000 Zn
0.666667 0.666667 0.000000 Zn
0.666667 0.666667 0.500000 Zn
1.000000 0.000000 0.000000 Zn
1.000000 0.000000 0.500000 Zn
1.000000 0.333333 0.000000 Zn
1.000000 0.333333 0.500000 Zn
1.000000 0.666667 0.000000 Zn
1.000000 0.666667 0.500000 Zn
0.166667 0.166667 0.250000 Zn
0.166667 0.166667 0.750000 Zn
0.166667 0.500000 0.250000 Zn
0.166667 0.500000 0.750000 Zn
0.166667 0.833333 0.250000 Zn
0.166667 0.833333 0.750000 Zn
0.500000 0.166667 0.250000 Zn
0.500000 0.166667 0.750000 Zn
0.500000 0.500000 0.250000 Zn
0.500000 0.500000 0.750000 Zn
0.500000 0.833333 0.250000 Zn
0.500000 0.833333 0.750000 Zn
0.833333 0.166667 0.250000 Zn
0.833333 0.166667 0.750000 Zn
0.833333 0.500000 0.250000 Zn
0.833333 0.500000 0.750000 Zn
0.833333 0.833333 0.250000 Zn
0.833333 0.833333 0.750000 Zn
0.333333 0.000000 0.071333 N
0.333333 0.000000 0.571333 N
0.333333 0.333333 0.071333 N
0.333333 0.333333 0.571333 N
0.333333 0.666667 0.071333 N
0.333333 0.666667 0.571333 N
0.666667 0.000000 0.071333 N
0.666667 0.000000 0.571333 N
0.666667 0.333333 0.071333 N
0.666667 0.333333 0.571333 N
0.666667 0.666667 0.071333 N
0.666667 0.666667 0.571333 N
1.000000 0.000000 0.071333 N
1.000000 0.000000 0.571333 N
1.000000 0.333333 0.071333 N
1.000000 0.333333 0.571333 N
1.000000 0.666667 0.071333 N
1.000000 0.666667 0.571333 N
0.333333 0.000000 0.428666 N
0.333333 0.000000 0.928666 N
0.333333 0.333333 0.428666 N
0.333333 0.333333 0.928666 N
0.333333 0.666667 0.428666 N
0.333333 0.666667 0.928666 N
0.666667 0.000000 0.428666 N
0.666667 0.000000 0.928666 N
0.666667 0.333333 0.428666 N
0.666667 0.333333 0.928666 N
0.666667 0.666667 0.428666 N
0.666667 0.666667 0.928666 N
1.000000 0.000000 0.428666 N
1.000000 0.000000 0.928666 N
1.000000 0.333333 0.428666 N
1.000000 0.333333 0.928666 N
1.000000 0.666667 0.428666 N
1.000000 0.666667 0.928666 N
0.166667 0.166667 0.321334 N
0.166667 0.166667 0.821334 N
0.166667 0.500000 0.321334 N
0.166667 0.500000 0.821334 N
0.166667 0.833333 0.321334 N
0.166667 0.833333 0.821334 N
0.500000 0.166667 0.321334 N
0.500000 0.166667 0.821334 N
0.500000 0.500000 0.321334 N
0.500000 0.500000 0.821334 N
0.500000 0.833333 0.321334 N
0.500000 0.833333 0.821334 N
0.833333 0.166667 0.321334 N
0.833333 0.166667 0.821334 N
0.833333 0.500000 0.321334 N
0.833333 0.500000 0.821334 N
0.833333 0.833333 0.321334 N
0.833333 0.833333 0.821334 N
0.166667 0.166667 0.178667 N
0.166667 0.166667 0.678667 N
0.166667 0.500000 0.178667 N
0.166667 0.500000 0.678667 N
0.166667 0.833333 0.178667 N
0.166667 0.833333 0.678667 N
0.500000 0.166667 0.178667 N
0.500000 0.166667 0.678667 N
0.500000 0.500000 0.178667 N
0.500000 0.500000 0.678667 N
0.500000 0.833333 0.178667 N
0.500000 0.833333 0.678667 N
0.833333 0.166667 0.178667 N
0.833333 0.166667 0.678667 N
0.833333 0.500000 0.178667 N
0.833333 0.500000 0.678667 N
0.833333 0.833333 0.178667 N
0.833333 0.833333 0.678667 N
