Sr72 Zn36 N72                           
   1.00000000000000     
    11.5533079999999995    0.0000000000000000    0.0000000000000000
     0.0000000000000000   11.5533079999999995    0.0000000000000000
    -0.0000010000000000    0.0000000000000000   25.5426430000000018
   Sr   Zn   N 
    72    36    72
Direct
  0.9998601607560360  0.3334221411404599  0.1707377560384700
  0.0053965060336481  0.3274690579071660  0.6718174649382931
  0.0000646570558942  0.6668874496453299  0.1708683695436974
  0.0003409948883260  0.6620652413493602  0.6718177473654663
  0.9999161424166942  0.0001373663537052  0.1709503269485992
  0.0044749476972754  0.9954062321557373  0.6728875252240130
  0.3334527705273089  0.3331785661973043  0.1697238801537253
  0.3443893932644073  0.3361326687048489  0.6664185866365955
  0.3332419689912172  0.6667479834780323  0.1701009099408850
  0.3301698901147390  0.6698326996381425  0.6752019244329119
  0.3331925802481877  0.9999660236087706  0.1708609236758818
  0.3380119503838301  0.9996996518174228  0.6718124465656743
  0.6666579395445069  0.3333318772653371  0.1699071550381888
  0.6694802820926355  0.3305361816476946  0.6729877487837754
  0.6667131418643564  0.6664425016917122  0.1697700350021378
  0.6633893198767495  0.6551213987656652  0.6663319715163993
  0.6666380903167024  0.0001283738136451  0.1707015289353819
  0.6726536844772895  0.9944215103467116  0.6718907869089747
  0.9959610805224770  0.0040512703446680  0.3305855297367870
  0.9999390677213853  0.0000187778885703  0.8290596893562778
  0.9962411459444951  0.3347609881654847  0.3295013880067401
  0.9998939305689944  0.3328476757249490  0.8291211892195847
  0.9971662154522463  0.6692142023466658  0.3295615200908415
  0.0005691593902526  0.6660375325561034  0.8292152133125725
  0.3308330852821939  0.0028857994093769  0.3295910389285837
  0.3339929413037268  0.9995384868734618  0.8291551848696415
  0.3292749681273577  0.3344199640604941  0.3278486025690128
  0.3338455999435226  0.3328613451158802  0.8277076138541446
  0.3291898120326451  0.6707738050878902  0.3289121102740111
  0.3331366219409375  0.6668985249487278  0.8288029429956225
  0.6652402750371351  0.0037366750294439  0.3294968467462311
  0.6673964669071069  0.0000988722386097  0.8290991861342647
  0.6638118241662667  0.3361691210476536  0.3259019699651660
  0.6674238813038116  0.3326623833258608  0.8281601104649567
  0.6655535950540425  0.6706723278402364  0.3277776853322578
  0.6670105356909417  0.6660699845652474  0.8277090801350795
  0.1642807695464654  0.1693665818177408  0.4214705727687544
  0.1670157669349734  0.1667481949628069  0.9202080213922628
  0.1624214619705029  0.5023167485356126  0.4210347575873357
  0.1669716089453885  0.4997654810718899  0.9204344711133885
  0.1647568656723166  0.8353127716989590  0.4219864332309768
  0.1666572423098600  0.8334319202050011  0.9212250230271479
  0.5012704334635671  0.1732043510719237  0.4196391038466629
  0.5001633409304063  0.1667571649715711  0.9208659971635598
  0.4956915798167216  0.5044446810797396  0.4136413784526169
  0.5002455966064616  0.4997238034265408  0.9190643285511939
  0.4977121515356160  0.8376028214698721  0.4210386727997886
  0.5003374078626237  0.8331379272263462  0.9204134130547814
  0.8209675437814425  0.1790180832253867  0.4238509246703188
  0.8332545725649823  0.1668808737176377  0.9213796130902736
  0.8268748683205871  0.4987956613075468  0.4195923103205743
  0.8332623124208425  0.4999913548405530  0.9208725482088269
  0.8305930479652659  0.8356787393587837  0.4214199134092382
  0.8333491701564739  0.8329133904366017  0.9202592908283336
  0.1666252608720029  0.1663970026944241  0.0787819500978557
  0.1673040767204128  0.1557777732968475  0.5791196198079476
  0.1667334058999685  0.5000791217588798  0.0787547312166481
  0.1714691934279458  0.4999918937375014  0.5799249865336051
  0.1666814219357633  0.8333964634261193  0.0791151201641043
  0.1716847366940897  0.8283749606821402  0.5802783696598155
  0.5001582332542540  0.1662367585789255  0.0782949467519245
  0.5170584952591142  0.1601413840447989  0.5821147818268884
  0.5002088670686433  0.4997718967619065  0.0771003345817860
  0.6017414490939430  0.3986980863589338  0.5180010732841822
  0.5000100427996585  0.8333070693299902  0.0787279467381410
  0.5000934531284216  0.8282444904116630  0.5799362143818456
  0.8336145961701433  0.1664567864341890  0.0785370580740832
  0.8419163585564888  0.1581036307240069  0.5803973843940753
  0.8337699271361387  0.4999371074523893  0.0783361437886683
  0.8400027558002066  0.4831432418400397  0.5820868119743849
  0.8336615552915490  0.8333884639261484  0.0787778710478975
  0.8440226185983519  0.8324258690601454  0.5792310367599498
  0.3326178775886675  0.9992896283868475  0.9998688634409163
  0.3361754621878248  0.0010112518345764  0.5008045390572349
  0.3332739311495061  0.3333458802110769  0.9987344800158269
  0.3433531007953832  0.3496755272160286  0.4990715644333363
  0.3333628220142870  0.6666495706336732  0.9988532356710138
  0.3388139972070405  0.6611728546402134  0.5036274430950414
  0.6667897994633378  0.9988396494939735  0.9996732673447895
  0.6667971449767336  0.9944713923589035  0.5010523342470066
  0.6666268316764672  0.3333859826747059  0.9988275471980472
  0.4615002867867801  0.5367806795183796  0.5935551957021517
  0.6666461734959483  0.6667217827005842  0.9987434911414397
  0.6507557805529842  0.6569301803433518  0.4989930409833505
  0.0007439930121436  0.9993291758824085  0.9996441419970168
  0.0023435136231313  0.9968885719619394  0.5010968551751844
  0.0010277320179028  0.3338396037103806  0.9998078273798896
  0.0055167222816479  0.3332101966467249  0.5010343582620180
  0.0007613914133486  0.6673839025812143  0.9998997495294830
  0.9990810010466902  0.6638882630769345  0.5007646623154045
  0.1655394814015949  0.1675137587636044  0.2500721184911185
  0.1720859555494911  0.1666596289261904  0.7485645651664754
  0.1657765604621417  0.5010943022870364  0.2501298747105025
  0.1677302872416249  0.4970382709960930  0.7492083786147603
  0.1654557422898364  0.8346057066026376  0.2505721891698443
  0.1667264007667413  0.8332834960494395  0.7512177504275002
  0.4973353842465400  0.1659375837720347  0.2487634286306744
  0.5010089643434839  0.1642250593301569  0.7509792517254112
  0.4966661437568618  0.5022882143562128  0.2463531753067585
  0.4958735632142819  0.5030606899211421  0.7464302977804351
  0.4989807962081017  0.8343118245191832  0.2501177297421009
  0.5029880512240936  0.8322471569607259  0.7492111390375129
  0.8331834897357311  0.1668179695751917  0.2490319302922543
  0.8377346060141946  0.1628884638000301  0.7517812417045704
  0.8341168653973838  0.5026798357364513  0.2487610998944376
  0.8357953148433666  0.4993796976049296  0.7509207136891831
  0.8325051632417697  0.8344671443900538  0.2500446574864839
  0.8333548628050806  0.8278710975622090  0.7486598814205152
  0.3332308844794554  0.9993463802783324  0.0711797175558146
  0.3396008467114555  0.9989304770000089  0.5721947196631660
  0.3329371178314133  0.3327871077437621  0.0699915591797620
  0.3870984704282776  0.3694568012202097  0.5676753803379739
  0.3329822104990470  0.6670821822238935  0.0701536481897875
  0.3370841928695896  0.6627550744641226  0.5764038140290779
  0.6667054653660784  0.9993053572430597  0.0709730455629582
  0.6721382042514321  0.9822110776259052  0.5721996790315345
  0.6674070073775269  0.3326262676381191  0.0700579861929995
  0.6967881874565691  0.3033549642867470  0.5823519661195036
  0.6672151307007823  0.6670792292580217  0.0700106062467611
  0.6308848497609176  0.6131819764520259  0.5676009663984374
  0.0004943126616155  0.9995916208380962  0.0709326946856663
  0.0094923757931440  0.9903133150916332  0.5726375445918421
  0.0007137602690648  0.3334813788930902  0.0710981498117320
  0.0178045514591645  0.3279367470683354  0.5721519014119352
  0.0007143293992513  0.6668463006809802  0.0712036258176596
  0.0011956866920499  0.6605196995651568  0.5721631636561568
  0.3303840572008880  0.0024368797174077  0.4296567770042614
  0.3328941221624504  0.0000109238026340  0.9285603854440296
  0.3270794841238782  0.3358656129409781  0.4286892617127194
  0.3334878111040922  0.3338743812186777  0.9273838691646077
  0.3312907453863616  0.6687566157082614  0.4324595050356024
  0.3340578258638587  0.6660331772565797  0.9275789363754825
  0.6632536378687846  0.0033037849521733  0.4298810460200002
  0.6667901088629691  0.9990278474189935  0.9284098205084348
  0.6582230555025745  0.3418129443942206  0.4236068817429341
  0.6657792944983711  0.3343179085250512  0.9276156684091887
  0.6641361389661427  0.6729992563866318  0.4285837689109400
  0.6661168496553387  0.6665106039580948  0.9273977773986033
  0.9976421337087018  0.0022579644876188  0.4303339640939754
  0.0002979571615640  0.9998568630436893  0.9283036104290758
  0.9967160107762822  0.3367242418890868  0.4298557753304024
  0.0010372839985138  0.3335086878670310  0.9285220872251045
  0.9976337010442435  0.6695893928208747  0.4296127714619047
  0.0001644235921106  0.6671550620676427  0.9285947607007330
  0.1638341058598201  0.1695137691022452  0.3215166858079712
  0.1673764051759790  0.1663259639714880  0.8197689023736814
  0.1642508191491459  0.5027761244283511  0.3215959482854061
  0.1667761150168516  0.4999265950842755  0.8204855352101603
  0.1643779717952327  0.8356764705433619  0.3220029294610782
  0.1667195486875386  0.8333441401937804  0.8222281323758480
  0.4951809200983277  0.1676047534216352  0.3198970047706453
  0.5004109275764037  0.1659206304551049  0.8221052238000652
  0.4936757815729322  0.5059407139540397  0.3172410116927864
  0.5000279166185351  0.4996935376544158  0.8177668621947944
  0.4972050524960139  0.8356316164799935  0.3215971919473120
  0.5001012329409278  0.8332764329376943  0.8204881174490737
  0.8314361029866362  0.1685578594139301  0.3204536415240113
  0.8333174675469053  0.1669131382112781  0.8230591163336243
  0.8323790827353363  0.5048498196583466  0.3198901255613791
  0.8340524178308399  0.4997922152647050  0.8220599501158716
  0.8304930772584953  0.8361824350300964  0.3214800350751901
  0.8337010177649660  0.8323158118126841  0.8199049585607057
  0.1669305904817264  0.1664001994235775  0.1786888057892000
  0.1736407829235134  0.1651563912150991  0.6768818937354766
  0.1672361566691194  0.4998476839193344  0.1787478891639793
  0.1692632369563896  0.4966195174827419  0.6779891342465376
  0.1668733140160157  0.8332164699189661  0.1791610858366113
  0.1678602501954458  0.8322212475002146  0.6799897592467872
  0.4999705007930118  0.1663898167924671  0.1774719068655557
  0.5022172896795212  0.1631822235956761  0.6799017626111521
  0.5001906694892000  0.4994425611486903  0.1753219580726153
  0.4939634323997026  0.5055307944555025  0.6747828086243288
  0.5002029977764195  0.8326476983021109  0.1787501066984660
  0.5033712545921674  0.8306485859310868  0.6779994220148637
  0.8336691115622301  0.1663429781485490  0.1776751234660239
  0.8429284192908213  0.1572298987473246  0.6812669252989352
  0.8335466380588556  0.5000926606808633  0.1774840945995706
  0.8367734830907096  0.4979655249244459  0.6798467568471196
  0.8335989373236572  0.8330796696683507  0.1786609853447629
  0.8348227366235434  0.8261047364354610  0.6770322090273027
 
  0.00000000E+00  0.00000000E+00  0.00000000E+00
  0.00000000E+00  0.00000000E+00  0.00000000E+00
  0.00000000E+00  0.00000000E+00  0.00000000E+00
  0.00000000E+00  0.00000000E+00  0.00000000E+00
  0.00000000E+00  0.00000000E+00  0.00000000E+00
  0.00000000E+00  0.00000000E+00  0.00000000E+00
  0.00000000E+00  0.00000000E+00  0.00000000E+00
  0.00000000E+00  0.00000000E+00  0.00000000E+00
  0.00000000E+00  0.00000000E+00  0.00000000E+00
  0.00000000E+00  0.00000000E+00  0.00000000E+00
  0.00000000E+00  0.00000000E+00  0.00000000E+00
  0.00000000E+00  0.00000000E+00  0.00000000E+00
  0.00000000E+00  0.00000000E+00  0.00000000E+00
  0.00000000E+00  0.00000000E+00  0.00000000E+00
  0.00000000E+00  0.00000000E+00  0.00000000E+00
  0.00000000E+00  0.00000000E+00  0.00000000E+00
  0.00000000E+00  0.00000000E+00  0.00000000E+00
  0.00000000E+00  0.00000000E+00  0.00000000E+00
  0.00000000E+00  0.00000000E+00  0.00000000E+00
  0.00000000E+00  0.00000000E+00  0.00000000E+00
  0.00000000E+00  0.00000000E+00  0.00000000E+00
  0.00000000E+00  0.00000000E+00  0.00000000E+00
  0.00000000E+00  0.00000000E+00  0.00000000E+00
  0.00000000E+00  0.00000000E+00  0.00000000E+00
  0.00000000E+00  0.00000000E+00  0.00000000E+00
  0.00000000E+00  0.00000000E+00  0.00000000E+00
  0.00000000E+00  0.00000000E+00  0.00000000E+00
  0.00000000E+00  0.00000000E+00  0.00000000E+00
  0.00000000E+00  0.00000000E+00  0.00000000E+00
  0.00000000E+00  0.00000000E+00  0.00000000E+00
  0.00000000E+00  0.00000000E+00  0.00000000E+00
  0.00000000E+00  0.00000000E+00  0.00000000E+00
  0.00000000E+00  0.00000000E+00  0.00000000E+00
  0.00000000E+00  0.00000000E+00  0.00000000E+00
  0.00000000E+00  0.00000000E+00  0.00000000E+00
  0.00000000E+00  0.00000000E+00  0.00000000E+00
  0.00000000E+00  0.00000000E+00  0.00000000E+00
  0.00000000E+00  0.00000000E+00  0.00000000E+00
  0.00000000E+00  0.00000000E+00  0.00000000E+00
  0.00000000E+00  0.00000000E+00  0.00000000E+00
  0.00000000E+00  0.00000000E+00  0.00000000E+00
  0.00000000E+00  0.00000000E+00  0.00000000E+00
  0.00000000E+00  0.00000000E+00  0.00000000E+00
  0.00000000E+00  0.00000000E+00  0.00000000E+00
  0.00000000E+00  0.00000000E+00  0.00000000E+00
  0.00000000E+00  0.00000000E+00  0.00000000E+00
  0.00000000E+00  0.00000000E+00  0.00000000E+00
  0.00000000E+00  0.00000000E+00  0.00000000E+00
  0.00000000E+00  0.00000000E+00  0.00000000E+00
  0.00000000E+00  0.00000000E+00  0.00000000E+00
  0.00000000E+00  0.00000000E+00  0.00000000E+00
  0.00000000E+00  0.00000000E+00  0.00000000E+00
  0.00000000E+00  0.00000000E+00  0.00000000E+00
  0.00000000E+00  0.00000000E+00  0.00000000E+00
  0.00000000E+00  0.00000000E+00  0.00000000E+00
  0.00000000E+00  0.00000000E+00  0.00000000E+00
  0.00000000E+00  0.00000000E+00  0.00000000E+00
  0.00000000E+00  0.00000000E+00  0.00000000E+00
  0.00000000E+00  0.00000000E+00  0.00000000E+00
  0.00000000E+00  0.00000000E+00  0.00000000E+00
  0.00000000E+00  0.00000000E+00  0.00000000E+00
  0.00000000E+00  0.00000000E+00  0.00000000E+00
  0.00000000E+00  0.00000000E+00  0.00000000E+00
  0.00000000E+00  0.00000000E+00  0.00000000E+00
  0.00000000E+00  0.00000000E+00  0.00000000E+00
  0.00000000E+00  0.00000000E+00  0.00000000E+00
  0.00000000E+00  0.00000000E+00  0.00000000E+00
  0.00000000E+00  0.00000000E+00  0.00000000E+00
  0.00000000E+00  0.00000000E+00  0.00000000E+00
  0.00000000E+00  0.00000000E+00  0.00000000E+00
  0.00000000E+00  0.00000000E+00  0.00000000E+00
  0.00000000E+00  0.00000000E+00  0.00000000E+00
  0.00000000E+00  0.00000000E+00  0.00000000E+00
  0.00000000E+00  0.00000000E+00  0.00000000E+00
  0.00000000E+00  0.00000000E+00  0.00000000E+00
  0.00000000E+00  0.00000000E+00  0.00000000E+00
  0.00000000E+00  0.00000000E+00  0.00000000E+00
  0.00000000E+00  0.00000000E+00  0.00000000E+00
  0.00000000E+00  0.00000000E+00  0.00000000E+00
  0.00000000E+00  0.00000000E+00  0.00000000E+00
  0.00000000E+00  0.00000000E+00  0.00000000E+00
  0.00000000E+00  0.00000000E+00  0.00000000E+00
  0.00000000E+00  0.00000000E+00  0.00000000E+00
  0.00000000E+00  0.00000000E+00  0.00000000E+00
  0.00000000E+00  0.00000000E+00  0.00000000E+00
  0.00000000E+00  0.00000000E+00  0.00000000E+00
  0.00000000E+00  0.00000000E+00  0.00000000E+00
  0.00000000E+00  0.00000000E+00  0.00000000E+00
  0.00000000E+00  0.00000000E+00  0.00000000E+00
  0.00000000E+00  0.00000000E+00  0.00000000E+00
  0.00000000E+00  0.00000000E+00  0.00000000E+00
  0.00000000E+00  0.00000000E+00  0.00000000E+00
  0.00000000E+00  0.00000000E+00  0.00000000E+00
  0.00000000E+00  0.00000000E+00  0.00000000E+00
  0.00000000E+00  0.00000000E+00  0.00000000E+00
  0.00000000E+00  0.00000000E+00  0.00000000E+00
  0.00000000E+00  0.00000000E+00  0.00000000E+00
  0.00000000E+00  0.00000000E+00  0.00000000E+00
  0.00000000E+00  0.00000000E+00  0.00000000E+00
  0.00000000E+00  0.00000000E+00  0.00000000E+00
  0.00000000E+00  0.00000000E+00  0.00000000E+00
  0.00000000E+00  0.00000000E+00  0.00000000E+00
  0.00000000E+00  0.00000000E+00  0.00000000E+00
  0.00000000E+00  0.00000000E+00  0.00000000E+00
  0.00000000E+00  0.00000000E+00  0.00000000E+00
  0.00000000E+00  0.00000000E+00  0.00000000E+00
  0.00000000E+00  0.00000000E+00  0.00000000E+00
  0.00000000E+00  0.00000000E+00  0.00000000E+00
  0.00000000E+00  0.00000000E+00  0.00000000E+00
  0.00000000E+00  0.00000000E+00  0.00000000E+00
  0.00000000E+00  0.00000000E+00  0.00000000E+00
  0.00000000E+00  0.00000000E+00  0.00000000E+00
  0.00000000E+00  0.00000000E+00  0.00000000E+00
  0.00000000E+00  0.00000000E+00  0.00000000E+00
  0.00000000E+00  0.00000000E+00  0.00000000E+00
  0.00000000E+00  0.00000000E+00  0.00000000E+00
  0.00000000E+00  0.00000000E+00  0.00000000E+00
  0.00000000E+00  0.00000000E+00  0.00000000E+00
  0.00000000E+00  0.00000000E+00  0.00000000E+00
  0.00000000E+00  0.00000000E+00  0.00000000E+00
  0.00000000E+00  0.00000000E+00  0.00000000E+00
  0.00000000E+00  0.00000000E+00  0.00000000E+00
  0.00000000E+00  0.00000000E+00  0.00000000E+00
  0.00000000E+00  0.00000000E+00  0.00000000E+00
  0.00000000E+00  0.00000000E+00  0.00000000E+00
  0.00000000E+00  0.00000000E+00  0.00000000E+00
  0.00000000E+00  0.00000000E+00  0.00000000E+00
  0.00000000E+00  0.00000000E+00  0.00000000E+00
  0.00000000E+00  0.00000000E+00  0.00000000E+00
  0.00000000E+00  0.00000000E+00  0.00000000E+00
  0.00000000E+00  0.00000000E+00  0.00000000E+00
  0.00000000E+00  0.00000000E+00  0.00000000E+00
  0.00000000E+00  0.00000000E+00  0.00000000E+00
  0.00000000E+00  0.00000000E+00  0.00000000E+00
  0.00000000E+00  0.00000000E+00  0.00000000E+00
  0.00000000E+00  0.00000000E+00  0.00000000E+00
  0.00000000E+00  0.00000000E+00  0.00000000E+00
  0.00000000E+00  0.00000000E+00  0.00000000E+00
  0.00000000E+00  0.00000000E+00  0.00000000E+00
  0.00000000E+00  0.00000000E+00  0.00000000E+00
  0.00000000E+00  0.00000000E+00  0.00000000E+00
  0.00000000E+00  0.00000000E+00  0.00000000E+00
  0.00000000E+00  0.00000000E+00  0.00000000E+00
  0.00000000E+00  0.00000000E+00  0.00000000E+00
  0.00000000E+00  0.00000000E+00  0.00000000E+00
  0.00000000E+00  0.00000000E+00  0.00000000E+00
  0.00000000E+00  0.00000000E+00  0.00000000E+00
  0.00000000E+00  0.00000000E+00  0.00000000E+00
  0.00000000E+00  0.00000000E+00  0.00000000E+00
  0.00000000E+00  0.00000000E+00  0.00000000E+00
  0.00000000E+00  0.00000000E+00  0.00000000E+00
  0.00000000E+00  0.00000000E+00  0.00000000E+00
  0.00000000E+00  0.00000000E+00  0.00000000E+00
  0.00000000E+00  0.00000000E+00  0.00000000E+00
  0.00000000E+00  0.00000000E+00  0.00000000E+00
  0.00000000E+00  0.00000000E+00  0.00000000E+00
  0.00000000E+00  0.00000000E+00  0.00000000E+00
  0.00000000E+00  0.00000000E+00  0.00000000E+00
  0.00000000E+00  0.00000000E+00  0.00000000E+00
  0.00000000E+00  0.00000000E+00  0.00000000E+00
  0.00000000E+00  0.00000000E+00  0.00000000E+00
  0.00000000E+00  0.00000000E+00  0.00000000E+00
  0.00000000E+00  0.00000000E+00  0.00000000E+00
  0.00000000E+00  0.00000000E+00  0.00000000E+00
  0.00000000E+00  0.00000000E+00  0.00000000E+00
  0.00000000E+00  0.00000000E+00  0.00000000E+00
  0.00000000E+00  0.00000000E+00  0.00000000E+00
  0.00000000E+00  0.00000000E+00  0.00000000E+00
  0.00000000E+00  0.00000000E+00  0.00000000E+00
  0.00000000E+00  0.00000000E+00  0.00000000E+00
  0.00000000E+00  0.00000000E+00  0.00000000E+00
  0.00000000E+00  0.00000000E+00  0.00000000E+00
  0.00000000E+00  0.00000000E+00  0.00000000E+00
  0.00000000E+00  0.00000000E+00  0.00000000E+00
  0.00000000E+00  0.00000000E+00  0.00000000E+00
  0.00000000E+00  0.00000000E+00  0.00000000E+00
  0.00000000E+00  0.00000000E+00  0.00000000E+00
  0.00000000E+00  0.00000000E+00  0.00000000E+00
  0.00000000E+00  0.00000000E+00  0.00000000E+00
  0.00000000E+00  0.00000000E+00  0.00000000E+00
