Sr17 Zn36 P36                           
   1.00000000000000     
    12.2176620000000007    0.0006840000000000    0.0001200000000000
    -6.1082380000000001   10.5802189999999996    0.0000770000000000
     0.0001400000000000    0.0001820000000000   14.2036990000000003
   Sr   Zn   P 
    17    36    36
Direct
  0.3333369189353022  0.3331191144102732  0.9999897049782760
  0.3333426289415371  0.3273333934208722  0.4999946326314557
  0.3333379305031983  0.6668832306619521  0.0000108476846350
  0.3333310179786437  0.6726680415031865  0.5000075714221239
  0.3333378998810446  0.0000016055966867  0.0000000569663214
  0.6664513924512079  0.3331210711156487  0.9999949548402753
  0.6606693092355655  0.3273489888915009  0.4999889489322342
  0.6666680946713299  0.6666712494587728  0.0016454278427602
  0.6666665931619207  0.6666525238996428  0.5004245287634319
  0.6664566363778306  0.9999971356091777  0.0000055081804078
  0.6606572783446509  0.9999925008768642  0.4999934268692385
  0.0000095949121572  0.3333337078479985  0.9983535848390090
  0.0000134716181535  0.3333532661153882  0.4995742641670731
  0.0002248568836549  0.6668838930010494  0.0000043959467249
  0.0060053861298215  0.6726562934372495  0.5000082162811665
  0.0002183379811314  0.0000064706386809  0.9999929622676191
  0.0060156608600224  0.0000106470156496  0.5000044042165612
  0.1127939376559937  0.2205428611643327  0.3153617032427931
  0.1126676548479963  0.2206543383816211  0.8152875026911701
  0.1127862315954147  0.5589124920729418  0.3153655771007209
  0.1126662450624494  0.5586661090955971  0.8152678409799563
  0.1161209753395624  0.8914042183811048  0.3168375206551133
  0.1102024537556971  0.8884295596117582  0.8130412242385958
  0.4419412306200172  0.2172271806070825  0.3168469479072371
  0.4449205773847282  0.2231624202074443  0.8130351865841448
  0.4459612138312323  0.5565547038481213  0.3152221882480148
  0.4467862583817563  0.5567853312813469  0.8141986377871078
  0.4419553631824584  0.8913875267228732  0.3168360331730682
  0.4448339383046900  0.8885002632622516  0.8130759072393730
  0.7744219390788984  0.2205496819813249  0.3153615048378313
  0.7746585387243385  0.2206663666980404  0.8152848268529880
  0.7771896997892256  0.5565236341461457  0.3152426725636772
  0.7766545104555505  0.5567691493941993  0.8142643306383164
  0.7771301359540530  0.8873885559954218  0.3152027370070485
  0.7766104724489225  0.8865569691842978  0.8141772909940954
  0.2218392457690470  0.1115004249196900  0.1869227202842509
  0.2247138703857914  0.1086157560545615  0.6831633819453344
  0.2198864431098997  0.4432097395437538  0.1858021388999660
  0.2207137900266218  0.4433971326893271  0.6847777350856248
  0.2217524969535845  0.7768418757796951  0.1869636811014885
  0.2247302006208614  0.7827732535953658  0.6831523332185157
  0.5564732209517445  0.1115743857572227  0.1869595722760877
  0.5505454032945991  0.1085958374784894  0.6831623298985150
  0.5540057785218337  0.4413356250105167  0.1847313992449102
  0.5538849916311435  0.4410902554099252  0.6846343430304458
  0.5539995983698702  0.7793451943581289  0.1847100092160048
  0.5538758659625884  0.7794563726135095  0.6846385105254242
  0.8900456754001524  0.1134449387065146  0.1858228703220988
  0.8893525158865927  0.1125994187244643  0.6847915728856009
  0.8900193372541807  0.4432317701805886  0.1857444215289235
  0.8894516787379771  0.4434573259404715  0.6847595599607885
  0.8920122120793508  0.7793363768388488  0.1847165872551813
  0.8922480778925674  0.7794517105109406  0.6846395404511298
  0.1106175470599453  0.2226829857530817  0.1369922450394867
  0.1115823541804417  0.2216088717806599  0.6389343342648814
  0.1106047817210438  0.5545361964743947  0.1369984250450429
  0.1116252942215041  0.5565755631496003  0.6389624465315791
  0.1115810899529137  0.8891104660758273  0.1372891596771808
  0.1120310216517879  0.8893406176307721  0.6403329568677094
  0.4442221781102305  0.2217519655343523  0.1372851708064715
  0.4439911887140084  0.2213032697996127  0.6403329942586780
  0.4439068316503310  0.5552806903568097  0.1392520820351777
  0.4438804242555818  0.5552572410765961  0.6385980895885268
  0.4442037205536593  0.8891273345190527  0.1373070578053515
  0.4439838121063460  0.8893477431943282  0.6403391947528618
  0.7787636775504652  0.2227103916927504  0.1369824720055774
  0.7766472245571734  0.2216640982000584  0.6389122941348973
  0.7780423946375308  0.5552934015198971  0.1392447957503862
  0.7780558844721668  0.5552628595765725  0.6386098261766833
  0.7780552707898067  0.8894356675635038  0.1392603826943031
  0.7780520392671590  0.8894471506439316  0.6385882575455639
  0.2226915847920310  0.1106562335659476  0.3596598758723957
  0.2224729048933867  0.1108766800099303  0.8626927002804123
  0.2227949039714403  0.4447441163444950  0.3614021295160299
  0.2227688227141300  0.4447218618347861  0.8607482910839579
  0.2226838052617950  0.7787003932312757  0.3596660768358646
  0.2224537061587952  0.7782514705114778  0.8627143675605637
  0.5546446646779657  0.1106627530665634  0.3596657643693248
  0.5550953757810575  0.1108934071190930  0.8627090322222060
  0.5550466768796767  0.4434188227623110  0.3610405800392940
  0.5560705680157696  0.4454652630464935  0.8630019225939378
  0.5550553058949177  0.7783706322110078  0.3610711893741723
  0.5560501961054243  0.7773157468471368  0.8630083136814122
  0.8886152464446013  0.1105578356760404  0.3614108755569632
  0.8886169473405801  0.1105690388695137  0.8607379330702614
  0.8886187398682068  0.4447389214276924  0.3613908462260937
  0.8886337315245783  0.4447077264634558  0.8607539481060584
  0.8900052884084104  0.7783466216146522  0.3610763724945443
  0.8879070076865361  0.7772940712078338  0.8630138194353236
 
  0.00000000E+00  0.00000000E+00  0.00000000E+00
  0.00000000E+00  0.00000000E+00  0.00000000E+00
  0.00000000E+00  0.00000000E+00  0.00000000E+00
  0.00000000E+00  0.00000000E+00  0.00000000E+00
  0.00000000E+00  0.00000000E+00  0.00000000E+00
  0.00000000E+00  0.00000000E+00  0.00000000E+00
  0.00000000E+00  0.00000000E+00  0.00000000E+00
  0.00000000E+00  0.00000000E+00  0.00000000E+00
  0.00000000E+00  0.00000000E+00  0.00000000E+00
  0.00000000E+00  0.00000000E+00  0.00000000E+00
  0.00000000E+00  0.00000000E+00  0.00000000E+00
  0.00000000E+00  0.00000000E+00  0.00000000E+00
  0.00000000E+00  0.00000000E+00  0.00000000E+00
  0.00000000E+00  0.00000000E+00  0.00000000E+00
  0.00000000E+00  0.00000000E+00  0.00000000E+00
  0.00000000E+00  0.00000000E+00  0.00000000E+00
  0.00000000E+00  0.00000000E+00  0.00000000E+00
  0.00000000E+00  0.00000000E+00  0.00000000E+00
  0.00000000E+00  0.00000000E+00  0.00000000E+00
  0.00000000E+00  0.00000000E+00  0.00000000E+00
  0.00000000E+00  0.00000000E+00  0.00000000E+00
  0.00000000E+00  0.00000000E+00  0.00000000E+00
  0.00000000E+00  0.00000000E+00  0.00000000E+00
  0.00000000E+00  0.00000000E+00  0.00000000E+00
  0.00000000E+00  0.00000000E+00  0.00000000E+00
  0.00000000E+00  0.00000000E+00  0.00000000E+00
  0.00000000E+00  0.00000000E+00  0.00000000E+00
  0.00000000E+00  0.00000000E+00  0.00000000E+00
  0.00000000E+00  0.00000000E+00  0.00000000E+00
  0.00000000E+00  0.00000000E+00  0.00000000E+00
  0.00000000E+00  0.00000000E+00  0.00000000E+00
  0.00000000E+00  0.00000000E+00  0.00000000E+00
  0.00000000E+00  0.00000000E+00  0.00000000E+00
  0.00000000E+00  0.00000000E+00  0.00000000E+00
  0.00000000E+00  0.00000000E+00  0.00000000E+00
  0.00000000E+00  0.00000000E+00  0.00000000E+00
  0.00000000E+00  0.00000000E+00  0.00000000E+00
  0.00000000E+00  0.00000000E+00  0.00000000E+00
  0.00000000E+00  0.00000000E+00  0.00000000E+00
  0.00000000E+00  0.00000000E+00  0.00000000E+00
  0.00000000E+00  0.00000000E+00  0.00000000E+00
  0.00000000E+00  0.00000000E+00  0.00000000E+00
  0.00000000E+00  0.00000000E+00  0.00000000E+00
  0.00000000E+00  0.00000000E+00  0.00000000E+00
  0.00000000E+00  0.00000000E+00  0.00000000E+00
  0.00000000E+00  0.00000000E+00  0.00000000E+00
  0.00000000E+00  0.00000000E+00  0.00000000E+00
  0.00000000E+00  0.00000000E+00  0.00000000E+00
  0.00000000E+00  0.00000000E+00  0.00000000E+00
  0.00000000E+00  0.00000000E+00  0.00000000E+00
  0.00000000E+00  0.00000000E+00  0.00000000E+00
  0.00000000E+00  0.00000000E+00  0.00000000E+00
  0.00000000E+00  0.00000000E+00  0.00000000E+00
  0.00000000E+00  0.00000000E+00  0.00000000E+00
  0.00000000E+00  0.00000000E+00  0.00000000E+00
  0.00000000E+00  0.00000000E+00  0.00000000E+00
  0.00000000E+00  0.00000000E+00  0.00000000E+00
  0.00000000E+00  0.00000000E+00  0.00000000E+00
  0.00000000E+00  0.00000000E+00  0.00000000E+00
  0.00000000E+00  0.00000000E+00  0.00000000E+00
  0.00000000E+00  0.00000000E+00  0.00000000E+00
  0.00000000E+00  0.00000000E+00  0.00000000E+00
  0.00000000E+00  0.00000000E+00  0.00000000E+00
  0.00000000E+00  0.00000000E+00  0.00000000E+00
  0.00000000E+00  0.00000000E+00  0.00000000E+00
  0.00000000E+00  0.00000000E+00  0.00000000E+00
  0.00000000E+00  0.00000000E+00  0.00000000E+00
  0.00000000E+00  0.00000000E+00  0.00000000E+00
  0.00000000E+00  0.00000000E+00  0.00000000E+00
  0.00000000E+00  0.00000000E+00  0.00000000E+00
  0.00000000E+00  0.00000000E+00  0.00000000E+00
  0.00000000E+00  0.00000000E+00  0.00000000E+00
  0.00000000E+00  0.00000000E+00  0.00000000E+00
  0.00000000E+00  0.00000000E+00  0.00000000E+00
  0.00000000E+00  0.00000000E+00  0.00000000E+00
  0.00000000E+00  0.00000000E+00  0.00000000E+00
  0.00000000E+00  0.00000000E+00  0.00000000E+00
  0.00000000E+00  0.00000000E+00  0.00000000E+00
  0.00000000E+00  0.00000000E+00  0.00000000E+00
  0.00000000E+00  0.00000000E+00  0.00000000E+00
  0.00000000E+00  0.00000000E+00  0.00000000E+00
  0.00000000E+00  0.00000000E+00  0.00000000E+00
  0.00000000E+00  0.00000000E+00  0.00000000E+00
  0.00000000E+00  0.00000000E+00  0.00000000E+00
  0.00000000E+00  0.00000000E+00  0.00000000E+00
  0.00000000E+00  0.00000000E+00  0.00000000E+00
  0.00000000E+00  0.00000000E+00  0.00000000E+00
  0.00000000E+00  0.00000000E+00  0.00000000E+00
  0.00000000E+00  0.00000000E+00  0.00000000E+00
