generated by phonopy
   1.0
     3.8511028206546873    0.0000000059099959   -0.0000001013383159
     0.0000000071465816    3.8511027147588948   -0.0000000064326699
    -0.0000003325210096   -0.0000000209873670   12.7713213635157832
Sr Zn N
   4    2    4
Direct
  0.9992503519973198  0.9999999689405142  0.3411124509505342
  0.0000000703358225  0.0000000020872477  0.6581378912705418
  0.5000000487895733  0.5000000081812743  0.8418620954538198
  0.5000000716403221  0.4999999522882845  0.1581378975272258
  0.9999999898136024  0.0000000141164307  0.0000002548780671
  0.4999999821292747  0.5000000153360772  0.4999997448331897
  0.9999999691995853  0.0000000054198281  0.1426669579513913
  0.9999999494361018  0.0000000140500092  0.8573328243718094
  0.4999999672754853  0.5000000027637626  0.6426671324834244
  0.4999999363590391  0.5000000168165714  0.3573330872561300
