generated by phonopy
   1.0
     3.5275375997040657   -0.0000684788684916   -0.0000044019431900
    -1.7638281039134569    3.0549018048169971    0.0000041737323491
    -0.0000071013790410    0.0000037631963303    6.2240087023213677
Sr Zn N
   1    2    2
Direct
  0.9999996503327133  0.9999999637031677  0.0000002355286653
  0.3333348939480484  0.6666651872394093  0.6261059595873762
  0.6666652807939913  0.3333348330204527  0.3722870896593354
  0.3333360974614445  0.6666640294048801  0.2769416521327637
  0.6666640174637904  0.3333359866320902  0.7230584115336715
