Strontium dicalcium nitride             
   1.00000000000000     
     3.9785558421329155    0.0000038047089560    0.0000085520976156
    -1.9892746265951800    3.4455324309290440   -0.0000085827653221
     0.0000149998456647   -0.0000087117292964    6.7339823250983981
   Sr   Ca   N 
     1     2     2
Direct
  0.0000000085521350  0.0000000134503750  0.9999999947105920
  0.3333323773002803  0.6666676082186314  0.6479373419409740
  0.6666675900709222  0.3333323903069285  0.3520626484518630
  0.3333338567253534  0.6666661217479302  0.2559298653158422
  0.6666661073512969  0.3333338662761349  0.7440701195807264
 
  0.00000000E+00  0.00000000E+00  0.00000000E+00
  0.00000000E+00  0.00000000E+00  0.00000000E+00
  0.00000000E+00  0.00000000E+00  0.00000000E+00
  0.00000000E+00  0.00000000E+00  0.00000000E+00
  0.00000000E+00  0.00000000E+00  0.00000000E+00
