Ca72 Zn36 N72                           
   1.00000000000000     
    10.7221290000000007    0.0000000000000000    0.0000000000000000
     0.0000000000000000   10.7221290000000007    0.0000000000000000
     0.0000000000000000    0.0000000000000000   24.9777859999999983
   Zn   Ca   N 
    36    71    72
Direct
  0.3337089048508898  0.0025296550657981  0.0005601681547244
  0.3328217541807507  0.9997488262651330  0.5000413970873908
  0.3330808152566114  0.3330810873934217  0.9936589319236769
  0.3342346635384911  0.3342346548660365  0.5000679631881064
  0.3340545520104558  0.6653495637383123  0.0004138044879910
  0.3342610210124324  0.6657499868355604  0.5000142821682829
  0.6655993224121836  0.0028868658898627 -0.0000025769028665
  0.6671324775985757  0.9999465296797866  0.4999512508010998
  0.6653495345457798  0.3340545870548230  0.0004138337129246
  0.6657500076867899  0.3342610509662837  0.5000142536075227
  0.6656126109131434  0.6656126276197908  0.0000136380908367
  0.6657317033286861  0.6657317126115623  0.4999861143870733
  0.0019889512779086  0.0019889726133482  0.9999922909373669
  0.9990218313621372  0.9990212790855952  0.4999838070848612
  0.0025298038309673  0.3337094552039443  0.0005600800868337
  0.9997488302037433  0.3328217154748846  0.5000413927512893
  0.0028868408831869  0.6655993273087051 -0.0000025597373154
  0.9999465545842483  0.6671324695101634  0.4999512454168414
  0.1656081419719488  0.1656081627940104  0.2501167701214527
  0.1656615303852116  0.1656615459838275  0.7498306386240418
  0.1670237101108409  0.4992505283713318  0.2501208341734175
  0.1660534491997402  0.5015498764051218  0.7494410554777375
  0.1657484457269190  0.8342562449348730  0.2500044523367073
  0.1657536105643076  0.8342703098907372  0.7500125970302443
  0.4992506271208679  0.1670237767739819  0.2501208249285332
  0.5015498064421957  0.1660535809870144  0.7494410621816405
  0.4987915860312437  0.4987915634649246  0.2501571297042104
  0.5014695843240783  0.5014696135604793  0.7496772050631092
  0.4995899570541821  0.8328217463859305  0.2499812535204671
  0.4998811068974610  0.8328689694326358  0.7500727570712010
  0.8342562417683562  0.1657484557556290  0.2500044863913038
  0.8342703117464733  0.1657536162964718  0.7500125767843369
  0.8328217468522596  0.4995900089648253  0.2499812748439384
  0.8328689800997354  0.4998812044119214  0.7500727258411681
  0.8342359550359820  0.8342359574725824  0.2500377321540364
  0.8342668930544536  0.8342668577537824  0.7499987657188480
  0.0038113635464451  0.3336338167422915  0.1696464866461676
  0.0002143657853662  0.3331920881639125  0.6687397311724205
  0.9985823573615782  0.6674631031734679  0.1685331436650090
  0.9999344498855841  0.6667209506682655  0.6686582036492829
  0.9984849705811667  0.9984848823002352  0.1685045869800108
  0.9999274759127825  0.9999271715170515  0.6687455041393684
  0.3335639172401287  0.3335639263857528  0.6687603295630825
  0.3327121119728381  0.6617300610913123  0.1696857484411760
  0.3334720926065396  0.6665202775358815  0.6687772051850113
  0.3336337035029027  0.0038115916482826  0.1696465059095607
  0.3331924030415750  0.0002144532608101  0.6687397370393446
  0.6617297975167533  0.3327123602075687  0.1696857774365323
  0.6665203262670863  0.3334720870124425  0.6687771724203878
  0.6674088202872521  0.6674085016557503  0.1685413055970992
  0.6665893084630256  0.6665892800697222  0.6687923859912970
  0.6674628015908598  0.9985822471511689  0.1685330944400016
  0.6667211556373591  0.9999344983089279  0.6686581582768983
  0.0005860035329765  0.0005860083706715  0.3310895730368975
  0.0000783841064553  0.0000783044603131  0.8313359664889211
  0.0012851856195929  0.3331652084968345  0.3311526418857323
  0.0003466270611533  0.3335178206695680  0.8314225892244417
  0.0015900697197901  0.6657474935100686  0.3309960437523437
  0.9999591342337988  0.6668878873843903  0.8313899442865664
  0.3331652845036933  0.0012851098536750  0.3311526447506903
  0.3335177154311242  0.0003467245342532  0.8314225432697229
  0.3332549106445450  0.3332547948261035  0.3295252138813068
  0.3336886801280108  0.3336886513765410  0.8290411787820260
  0.3337006119261455  0.6656389686870067  0.3310768737211174
  0.3335088006938325  0.6666975430485980  0.8312912601576359
  0.6657476837939460  0.0015901282247785  0.3309960394986395
  0.6668878136295425  0.9999592144776834  0.8313898625544404
  0.6656390830793066  0.3337006965884962  0.3310768817610855
  0.6666974693912410  0.3335090572572360  0.8312911837240846
  0.6657823539351760  0.6657822047511069  0.3308617592206005
  0.6668306243378758  0.6668306125893471  0.8313701638980138
  0.1668210917675739  0.1668210221851391  0.4187568762968891
  0.1672066560551673  0.1672065488086944  0.9183657781826511
  0.1673624793667627  0.4990547658600630  0.4187127711723026
  0.1674885406642202  0.4995300710020552  0.9182467870093043
  0.1666056281706459  0.8333766582942720  0.4187810079147151
  0.1665973334280184  0.8337133097191194  0.9190748662541219
  0.4990546531791483  0.1673624628411745  0.4187127836830397
  0.4995304423238743  0.1674886682251912  0.9182467950424246
  0.4994168148719369  0.4994167167160432  0.4186198117373194
  0.4995808449955419  0.4995808824317264  0.9183861916832582
  0.4999112068086409  0.8333433768644843  0.4186412476421426
  0.4999864162093559  0.8332339473133819  0.9191604229909548
  0.8333768660637106  0.1666054482923483  0.4187811497514839
  0.8337132827309079  0.1665973098075435  0.9190748196143999
  0.8333436019826259  0.4999110373186758  0.4186412414519281
  0.8332338681490801  0.4999866282620076  0.9191604758173381
  0.8332517075433198  0.8332516610871040  0.4185975565514327
  0.8338585154502749  0.8338584800296839  0.9192058297335896
  0.1730712192217119  0.1730711879509333  0.0847729006049312
  0.1664157627220468  0.1664155496309981  0.5811121323408344
  0.1730306584861901  0.4930466068190283  0.0843971763454266
  0.1668997239461158  0.4997360587061065  0.5811340863713149
  0.1674938672721817  0.8334676318878859  0.0817768814677674
  0.1664805008199556  0.8333937170907078  0.5811930209338146
  0.4930466173623778  0.1730304357683510  0.0843970792192105
  0.4997364375021366  0.1668998251430962  0.5811340519431815
  0.4929361695428076  0.4929360628450105  0.0844734500961597
  0.4999728873549848  0.4999729437099448  0.5812285219430247
  0.4986750307042701  0.8331872035861430  0.0816966731624953
  0.4998155664202260  0.8332007986708564  0.5812626326439075
  0.8334674600027636  0.1674937576296670  0.0817768930197413
  0.8333938294567373  0.1664801688913149  0.5811929139133765
  0.8331874053665485  0.4986752355576623  0.0816967121867002
  0.8332006852542353  0.4998151137075875  0.5812625740540889
  0.8336571605584783  0.8336571268691387  0.0803908317174197
  0.8333623970217371  0.8333622719466671  0.5811790859671437
  0.3333971315283233  0.0007169121193740  0.0735308424897758
  0.3331080850160642  0.9998189071003570  0.5729401033750174
  0.3332650931355033  0.3332651048954264  0.0648166365269454
  0.3335046880649783  0.3335047128986678  0.5730111187822549
  0.3334434007883907  0.6660053695867310  0.0734052314976545
  0.3335558044873974  0.6664578455300499  0.5729203047797526
  0.6667445063613201  0.0000215833199545  0.0725877284520469
  0.6665998029815876  0.9998675433258778  0.5728521743723444
  0.6660054366999408  0.3334435438299880  0.0734052764653713
  0.6664578375662604  0.3335557931753969  0.5729203353589098
  0.6666762497462243  0.6666763741415994  0.0725960224567980
  0.6664032128986160  0.6664031368110173  0.5729005117223313
  0.0000101797820482  0.0000104099817840  0.0725621540069949
  0.9996571023990433  0.9996564459056165  0.5728711860790563
  0.0007171498369086  0.3333975148974137  0.0735308545594745
  0.9998186534782253  0.3331075708218212  0.5729400734086003
  0.0000212849997401  0.6667448976725078  0.0725877622033460
  0.9998674535265347  0.6665994365523349  0.5728521757109708
  0.3331395250951209  0.9996448864197527  0.4272200822917236
  0.3335893237016413  0.0006389475127673  0.9275053571570968
  0.3334223448915872  0.3334223630846926  0.4273361312733483
  0.3336797841947941  0.3336798709442401  0.9210196584996334
  0.3335637299364969  0.6665780351517441  0.4271795225420632
  0.3337049573869088  0.6664867793822452  0.9273554697751948
  0.6666088156621254  0.0000102255938980  0.4270757989292322
  0.6666186240632956  0.0007600195077009  0.9269546836257745
  0.6665781796472585  0.3335636378587838  0.4271795214468979
  0.6664867534017646  0.3337051878747492  0.9273554538122376
  0.6664593062655461  0.6664593868904527  0.4270881949164248
  0.6666550206843895  0.6666549935529634  0.9269566035699279
  0.9995508598238149  0.9995504907826285  0.4271459903139820
  0.0004637300812234  0.0004637804372372  0.9269553502684457
  0.9996447904119139  0.3331395236214122  0.4272201240910118
  0.0006389321255847  0.3335894998208696  0.9275053050467084
  0.0000101251075774  0.6666088781108680  0.4270757885907198
  0.0007598912757987  0.6666188155864825  0.9269547376481000
  0.1669358201237366  0.1669357863533291  0.3234676483849325
  0.1659417299455415  0.1659416960810712  0.8224533302243485
  0.1675274273673089  0.4988645639524186  0.3234479534001810
  0.1659988061959250  0.5014747386586715  0.8221166265351846
  0.1664280158638532  0.8335580962007609  0.3229507813200093
  0.1666874247371680  0.8338506840471055  0.8229135335119578
  0.4988644405808670  0.1675275856366564  0.3234479373508811
  0.5014745917725386  0.1659988053292993  0.8221166176588706
  0.4989102311259084  0.4989102451490998  0.3234603931389173
  0.5014183571149647  0.5014185220894805  0.8223131954591374
  0.5001403517604632  0.8333953151623731  0.3229091346797276
  0.4996988220435059  0.8335241256027477  0.8229635293286128
  0.8335582422558233  0.1664280078682468  0.3229507937694464
  0.8338505567150736  0.1666877381638277  0.8229134726977204
  0.8333953453266402  0.5001403522491080  0.3229091908873158
  0.8335239211592963  0.4996989269726121  0.8229634889477763
  0.8335814467863817  0.8335812810965364  0.3227634192261044
  0.8336872277259195  0.8336873799426929  0.8228610442624321
  0.1535491444789480  0.1535491160280596  0.1786002053259361
  0.1664993957578317  0.1664994670331976  0.6769085368075417
  0.1536704461463733  0.5122884595520594  0.1785820652328472
  0.1667260332270545  0.5001708056231665  0.6766178023443801
  0.1663567592330643  0.8333670785828824  0.1773714927774255
  0.1663301915369758  0.8335809617390902  0.6771047578438617
  0.5122882265486532  0.1536703390564432  0.1785820103685929
  0.5001710530759452  0.1667261817281441  0.6766177991580857
  0.5120248924615007  0.5120247966868251  0.1786344450057758
  0.5001792454078178  0.5001794708192221  0.6768345219539429
  0.4993115499964911  0.8329374151166739  0.1773357840024794
  0.5000066336149745  0.8333554079150501  0.6771516595926117
  0.8333670163906575  0.1663567912795095  0.1773715312194705
  0.8335810400623652  0.1663301388100674  0.6771047402398211
  0.8329375549119071  0.4993115698890221  0.1773358269296148
  0.8333551428090661  0.5000067549077520  0.6771516395794167
  0.8333361778844506  0.8333362040803216  0.1773004284444038
  0.8335529211940430  0.8335529616045808  0.6770794662242599
 
  0.00000000E+00  0.00000000E+00  0.00000000E+00
  0.00000000E+00  0.00000000E+00  0.00000000E+00
  0.00000000E+00  0.00000000E+00  0.00000000E+00
  0.00000000E+00  0.00000000E+00  0.00000000E+00
  0.00000000E+00  0.00000000E+00  0.00000000E+00
  0.00000000E+00  0.00000000E+00  0.00000000E+00
  0.00000000E+00  0.00000000E+00  0.00000000E+00
  0.00000000E+00  0.00000000E+00  0.00000000E+00
  0.00000000E+00  0.00000000E+00  0.00000000E+00
  0.00000000E+00  0.00000000E+00  0.00000000E+00
  0.00000000E+00  0.00000000E+00  0.00000000E+00
  0.00000000E+00  0.00000000E+00  0.00000000E+00
  0.00000000E+00  0.00000000E+00  0.00000000E+00
  0.00000000E+00  0.00000000E+00  0.00000000E+00
  0.00000000E+00  0.00000000E+00  0.00000000E+00
  0.00000000E+00  0.00000000E+00  0.00000000E+00
  0.00000000E+00  0.00000000E+00  0.00000000E+00
  0.00000000E+00  0.00000000E+00  0.00000000E+00
  0.00000000E+00  0.00000000E+00  0.00000000E+00
  0.00000000E+00  0.00000000E+00  0.00000000E+00
  0.00000000E+00  0.00000000E+00  0.00000000E+00
  0.00000000E+00  0.00000000E+00  0.00000000E+00
  0.00000000E+00  0.00000000E+00  0.00000000E+00
  0.00000000E+00  0.00000000E+00  0.00000000E+00
  0.00000000E+00  0.00000000E+00  0.00000000E+00
  0.00000000E+00  0.00000000E+00  0.00000000E+00
  0.00000000E+00  0.00000000E+00  0.00000000E+00
  0.00000000E+00  0.00000000E+00  0.00000000E+00
  0.00000000E+00  0.00000000E+00  0.00000000E+00
  0.00000000E+00  0.00000000E+00  0.00000000E+00
  0.00000000E+00  0.00000000E+00  0.00000000E+00
  0.00000000E+00  0.00000000E+00  0.00000000E+00
  0.00000000E+00  0.00000000E+00  0.00000000E+00
  0.00000000E+00  0.00000000E+00  0.00000000E+00
  0.00000000E+00  0.00000000E+00  0.00000000E+00
  0.00000000E+00  0.00000000E+00  0.00000000E+00
  0.00000000E+00  0.00000000E+00  0.00000000E+00
  0.00000000E+00  0.00000000E+00  0.00000000E+00
  0.00000000E+00  0.00000000E+00  0.00000000E+00
  0.00000000E+00  0.00000000E+00  0.00000000E+00
  0.00000000E+00  0.00000000E+00  0.00000000E+00
  0.00000000E+00  0.00000000E+00  0.00000000E+00
  0.00000000E+00  0.00000000E+00  0.00000000E+00
  0.00000000E+00  0.00000000E+00  0.00000000E+00
  0.00000000E+00  0.00000000E+00  0.00000000E+00
  0.00000000E+00  0.00000000E+00  0.00000000E+00
  0.00000000E+00  0.00000000E+00  0.00000000E+00
  0.00000000E+00  0.00000000E+00  0.00000000E+00
  0.00000000E+00  0.00000000E+00  0.00000000E+00
  0.00000000E+00  0.00000000E+00  0.00000000E+00
  0.00000000E+00  0.00000000E+00  0.00000000E+00
  0.00000000E+00  0.00000000E+00  0.00000000E+00
  0.00000000E+00  0.00000000E+00  0.00000000E+00
  0.00000000E+00  0.00000000E+00  0.00000000E+00
  0.00000000E+00  0.00000000E+00  0.00000000E+00
  0.00000000E+00  0.00000000E+00  0.00000000E+00
  0.00000000E+00  0.00000000E+00  0.00000000E+00
  0.00000000E+00  0.00000000E+00  0.00000000E+00
  0.00000000E+00  0.00000000E+00  0.00000000E+00
  0.00000000E+00  0.00000000E+00  0.00000000E+00
  0.00000000E+00  0.00000000E+00  0.00000000E+00
  0.00000000E+00  0.00000000E+00  0.00000000E+00
  0.00000000E+00  0.00000000E+00  0.00000000E+00
  0.00000000E+00  0.00000000E+00  0.00000000E+00
  0.00000000E+00  0.00000000E+00  0.00000000E+00
  0.00000000E+00  0.00000000E+00  0.00000000E+00
  0.00000000E+00  0.00000000E+00  0.00000000E+00
  0.00000000E+00  0.00000000E+00  0.00000000E+00
  0.00000000E+00  0.00000000E+00  0.00000000E+00
  0.00000000E+00  0.00000000E+00  0.00000000E+00
  0.00000000E+00  0.00000000E+00  0.00000000E+00
  0.00000000E+00  0.00000000E+00  0.00000000E+00
  0.00000000E+00  0.00000000E+00  0.00000000E+00
  0.00000000E+00  0.00000000E+00  0.00000000E+00
  0.00000000E+00  0.00000000E+00  0.00000000E+00
  0.00000000E+00  0.00000000E+00  0.00000000E+00
  0.00000000E+00  0.00000000E+00  0.00000000E+00
  0.00000000E+00  0.00000000E+00  0.00000000E+00
  0.00000000E+00  0.00000000E+00  0.00000000E+00
  0.00000000E+00  0.00000000E+00  0.00000000E+00
  0.00000000E+00  0.00000000E+00  0.00000000E+00
  0.00000000E+00  0.00000000E+00  0.00000000E+00
  0.00000000E+00  0.00000000E+00  0.00000000E+00
  0.00000000E+00  0.00000000E+00  0.00000000E+00
  0.00000000E+00  0.00000000E+00  0.00000000E+00
  0.00000000E+00  0.00000000E+00  0.00000000E+00
  0.00000000E+00  0.00000000E+00  0.00000000E+00
  0.00000000E+00  0.00000000E+00  0.00000000E+00
  0.00000000E+00  0.00000000E+00  0.00000000E+00
  0.00000000E+00  0.00000000E+00  0.00000000E+00
  0.00000000E+00  0.00000000E+00  0.00000000E+00
  0.00000000E+00  0.00000000E+00  0.00000000E+00
  0.00000000E+00  0.00000000E+00  0.00000000E+00
  0.00000000E+00  0.00000000E+00  0.00000000E+00
  0.00000000E+00  0.00000000E+00  0.00000000E+00
  0.00000000E+00  0.00000000E+00  0.00000000E+00
  0.00000000E+00  0.00000000E+00  0.00000000E+00
  0.00000000E+00  0.00000000E+00  0.00000000E+00
  0.00000000E+00  0.00000000E+00  0.00000000E+00
  0.00000000E+00  0.00000000E+00  0.00000000E+00
  0.00000000E+00  0.00000000E+00  0.00000000E+00
  0.00000000E+00  0.00000000E+00  0.00000000E+00
  0.00000000E+00  0.00000000E+00  0.00000000E+00
  0.00000000E+00  0.00000000E+00  0.00000000E+00
  0.00000000E+00  0.00000000E+00  0.00000000E+00
  0.00000000E+00  0.00000000E+00  0.00000000E+00
  0.00000000E+00  0.00000000E+00  0.00000000E+00
  0.00000000E+00  0.00000000E+00  0.00000000E+00
  0.00000000E+00  0.00000000E+00  0.00000000E+00
  0.00000000E+00  0.00000000E+00  0.00000000E+00
  0.00000000E+00  0.00000000E+00  0.00000000E+00
  0.00000000E+00  0.00000000E+00  0.00000000E+00
  0.00000000E+00  0.00000000E+00  0.00000000E+00
  0.00000000E+00  0.00000000E+00  0.00000000E+00
  0.00000000E+00  0.00000000E+00  0.00000000E+00
  0.00000000E+00  0.00000000E+00  0.00000000E+00
  0.00000000E+00  0.00000000E+00  0.00000000E+00
  0.00000000E+00  0.00000000E+00  0.00000000E+00
  0.00000000E+00  0.00000000E+00  0.00000000E+00
  0.00000000E+00  0.00000000E+00  0.00000000E+00
  0.00000000E+00  0.00000000E+00  0.00000000E+00
  0.00000000E+00  0.00000000E+00  0.00000000E+00
  0.00000000E+00  0.00000000E+00  0.00000000E+00
  0.00000000E+00  0.00000000E+00  0.00000000E+00
  0.00000000E+00  0.00000000E+00  0.00000000E+00
  0.00000000E+00  0.00000000E+00  0.00000000E+00
  0.00000000E+00  0.00000000E+00  0.00000000E+00
  0.00000000E+00  0.00000000E+00  0.00000000E+00
  0.00000000E+00  0.00000000E+00  0.00000000E+00
  0.00000000E+00  0.00000000E+00  0.00000000E+00
  0.00000000E+00  0.00000000E+00  0.00000000E+00
  0.00000000E+00  0.00000000E+00  0.00000000E+00
  0.00000000E+00  0.00000000E+00  0.00000000E+00
  0.00000000E+00  0.00000000E+00  0.00000000E+00
  0.00000000E+00  0.00000000E+00  0.00000000E+00
  0.00000000E+00  0.00000000E+00  0.00000000E+00
  0.00000000E+00  0.00000000E+00  0.00000000E+00
  0.00000000E+00  0.00000000E+00  0.00000000E+00
  0.00000000E+00  0.00000000E+00  0.00000000E+00
  0.00000000E+00  0.00000000E+00  0.00000000E+00
  0.00000000E+00  0.00000000E+00  0.00000000E+00
  0.00000000E+00  0.00000000E+00  0.00000000E+00
  0.00000000E+00  0.00000000E+00  0.00000000E+00
  0.00000000E+00  0.00000000E+00  0.00000000E+00
  0.00000000E+00  0.00000000E+00  0.00000000E+00
  0.00000000E+00  0.00000000E+00  0.00000000E+00
  0.00000000E+00  0.00000000E+00  0.00000000E+00
  0.00000000E+00  0.00000000E+00  0.00000000E+00
  0.00000000E+00  0.00000000E+00  0.00000000E+00
  0.00000000E+00  0.00000000E+00  0.00000000E+00
  0.00000000E+00  0.00000000E+00  0.00000000E+00
  0.00000000E+00  0.00000000E+00  0.00000000E+00
  0.00000000E+00  0.00000000E+00  0.00000000E+00
  0.00000000E+00  0.00000000E+00  0.00000000E+00
  0.00000000E+00  0.00000000E+00  0.00000000E+00
  0.00000000E+00  0.00000000E+00  0.00000000E+00
  0.00000000E+00  0.00000000E+00  0.00000000E+00
  0.00000000E+00  0.00000000E+00  0.00000000E+00
  0.00000000E+00  0.00000000E+00  0.00000000E+00
  0.00000000E+00  0.00000000E+00  0.00000000E+00
  0.00000000E+00  0.00000000E+00  0.00000000E+00
  0.00000000E+00  0.00000000E+00  0.00000000E+00
  0.00000000E+00  0.00000000E+00  0.00000000E+00
  0.00000000E+00  0.00000000E+00  0.00000000E+00
  0.00000000E+00  0.00000000E+00  0.00000000E+00
  0.00000000E+00  0.00000000E+00  0.00000000E+00
  0.00000000E+00  0.00000000E+00  0.00000000E+00
  0.00000000E+00  0.00000000E+00  0.00000000E+00
  0.00000000E+00  0.00000000E+00  0.00000000E+00
  0.00000000E+00  0.00000000E+00  0.00000000E+00
  0.00000000E+00  0.00000000E+00  0.00000000E+00
  0.00000000E+00  0.00000000E+00  0.00000000E+00
  0.00000000E+00  0.00000000E+00  0.00000000E+00
  0.00000000E+00  0.00000000E+00  0.00000000E+00
  0.00000000E+00  0.00000000E+00  0.00000000E+00
  0.00000000E+00  0.00000000E+00  0.00000000E+00
  0.00000000E+00  0.00000000E+00  0.00000000E+00
  0.00000000E+00  0.00000000E+00  0.00000000E+00
  0.00000000E+00  0.00000000E+00  0.00000000E+00
