Sr18 Zn36 P36                           
   1.00000000000000     
    12.2176620000000007    0.0006840000000000    0.0001200000000000
    -6.1082380000000001   10.5802189999999996    0.0000770000000000
     0.0001400000000000    0.0001820000000000   14.2036990000000003
   Sr   Zn   P 
    18    36    36
Direct
  0.3350938804452710  0.3320209463923405  0.9992238100348700
  0.4317478710464613  0.2345858386307285  0.3286442511407799
  0.3354774877048143  0.6688152299645296  0.0002636757692471
  0.3361427883980213  0.6696008466885672  0.4985227824255105
  0.3342663253690787  0.0001786515535613  0.9987031772179336
  0.3273865267113223  0.9963389659551680  0.5007783958242698
  0.6669700428918830  0.3325680501309876  0.9987717027374003
  0.6700656753942908  0.3387169775091010  0.5007723465754097
  0.6674525199960684  0.6655273676880213  0.9996789683910876
  0.6680163902584439  0.6694595299599655  0.5016037725357805
  0.6670294101056413  0.9997424960803230  0.9990123884185991
  0.6682126431671520  0.9983133113374905  0.5000920021891346
  0.9983983328914547  0.3311640914190690  0.0003944915465013
  0.9966533160014208  0.3302798933232225  0.4985448446823710
  0.0022915640529604  0.6648427123344334  0.9991946815694490
  0.0002119728754124  0.6662378465205521  0.4989204874332245
  0.0010532832243371  0.9991456548533009  0.9996950393903674
  0.9964324609897233  0.9979755875552954  0.5015144141732648
  0.1057371146645067  0.2149856751377683  0.3158693296196731
  0.1156917684048864  0.2241288232549508  0.8145119638891032
  0.1164943018039466  0.5501155621888145  0.3180825284535871
  0.1111028698740455  0.5573061067269336  0.8153527244970178
  0.1020236558111449  0.8730620023177948  0.3109290227222061
  0.1099742598691336  0.8893547145770100  0.8151243556756853
  0.2834097445714647  0.3821510984068652  0.5307187074147919
  0.4460958047894152  0.2218257070721208  0.8109707766963510
  0.4515706619534328  0.5608137355204619  0.3157447511493530
  0.4426205642980534  0.5509943260354149  0.8144995335509719
  0.4464550626556516  0.8872864842233454  0.3155626146992034
  0.4462789134471947  0.8905051394249810  0.8124730911100642
  0.7793735815225986  0.2201534526431459  0.3155596465817325
  0.7778310895946632  0.2220540953644914  0.8132771424909890
  0.7934199454509923  0.5644259711884345  0.3109259909408593
  0.7793025425083684  0.5553291252550423  0.8151457279337535
  0.7786934596186228  0.8870675044154197  0.3128108302587478
  0.7781430205756905  0.8871434656272257  0.8152595884797904
  0.2149468034654021  0.1020230466100287  0.1844417010377057
  0.2266975478600557  0.1125841936803553  0.6831540268117422
  0.2261426757136533  0.4405841287152512  0.1789178251451204
  0.2178123705380486  0.4484226038372015  0.6939356149132294
  0.2242036961065708  0.7776953208323505  0.1847913259692575
  0.2221642072396790  0.7777712701524564  0.6865165348851363
  0.5550114082853881  0.1130127196207980  0.1885909518262636
  0.5542130709149404  0.1126446341160303  0.6833702786998188
  0.5645439420141258  0.4516929536811958  0.1844205264099941
  0.5535103335262335  0.4393598869275053  0.6831668274045271
  0.5543160043533675  0.7793280499342430  0.1846349053980703
  0.5540311206122155  0.7796409274509557  0.6843255998163755
  0.8885428934890101  0.1123349215144813  0.1848290700042696
  0.8866057182730103  0.1118630732686512  0.6840753507763608
  0.8890394668101891  0.4424804779076439  0.1847995200727297
  0.8902512110114458  0.4449803416893232  0.6863999752890209
  0.8874467048849581  0.7774970773952319  0.1845314680033852
  0.8889265698534601  0.7760517227336265  0.6873320188282008
  0.1107257300268429  0.2211222502139236  0.1378328097919379
  0.1191124844400591  0.2265552209875139  0.6347441579822330
  0.1145934711594450  0.5521936634455429  0.1434160967633957
  0.1111951116290157  0.5560983362431386  0.6376821780385029
  0.1091525016009598  0.8836389548428585  0.1335010054340344
  0.1100867662432279  0.8881014545653869  0.6393306647096750
  0.4444652997492256  0.2224670055684967  0.1313487481207716
  0.4444058899815673  0.2218578518818646  0.6336037725143839
  0.4455829196551377  0.5565199716581120  0.1378784232806254
  0.4393531858251833  0.5468139770383189  0.6347638715886177
  0.4454846592808082  0.8906673176632438  0.1374673996958151
  0.4437018351490565  0.8888302326759572  0.6369688350485845
  0.7768619401747756  0.2212950238463804  0.1374338198874980
  0.7780315004243832  0.2230544008130124  0.6374199643655629
  0.7828063398240914  0.5570776046211705  0.1333454968689907
  0.7781714905779182  0.5555518740094954  0.6393344864289574
  0.7776034665909535  0.8889846271388251  0.1367532526900135
  0.7775501369175899  0.8883113671765912  0.6402236353777795
  0.1840553533976532  0.0809895298758718  0.3581150203497643
  0.2237643960292601  0.1115592011394995  0.8599887336661638
  0.2342510632007304  0.4321640748206192  0.3748039880787317
  0.2221842988948524  0.4447811223634872  0.8644180165532305
  0.2232019694262348  0.7729645870567836  0.3604555358584847
  0.2237849032611834  0.7785433037989407  0.8612235903465475
  0.5626702000137911  0.1039250592628065  0.3647926526866527
  0.5569489247340513  0.1108111117914703  0.8604684192864269
  0.5854323140323601  0.4822865309823854  0.3579612944635215
  0.5561411590376721  0.4435864707185644  0.8599851952549002
  0.5568360195031588  0.7793762014385948  0.3612240791144501
  0.5544346893342720  0.7746228102681556  0.8581784158415289
  0.8870136934296795  0.1094400463575624  0.3611615619099524
  0.8920653556773459  0.1118009367355057  0.8580846103253208
  0.8935322612945811  0.4433151390311210  0.3604360581372177
  0.8898656367816500  0.4435228276061807  0.8615454004431058
  0.8900407956120517  0.7762460799424389  0.3617021575153601
  0.8893656391999585  0.7767394950759510  0.8630055720709748
 
  0.00000000E+00  0.00000000E+00  0.00000000E+00
  0.00000000E+00  0.00000000E+00  0.00000000E+00
  0.00000000E+00  0.00000000E+00  0.00000000E+00
  0.00000000E+00  0.00000000E+00  0.00000000E+00
  0.00000000E+00  0.00000000E+00  0.00000000E+00
  0.00000000E+00  0.00000000E+00  0.00000000E+00
  0.00000000E+00  0.00000000E+00  0.00000000E+00
  0.00000000E+00  0.00000000E+00  0.00000000E+00
  0.00000000E+00  0.00000000E+00  0.00000000E+00
  0.00000000E+00  0.00000000E+00  0.00000000E+00
  0.00000000E+00  0.00000000E+00  0.00000000E+00
  0.00000000E+00  0.00000000E+00  0.00000000E+00
  0.00000000E+00  0.00000000E+00  0.00000000E+00
  0.00000000E+00  0.00000000E+00  0.00000000E+00
  0.00000000E+00  0.00000000E+00  0.00000000E+00
  0.00000000E+00  0.00000000E+00  0.00000000E+00
  0.00000000E+00  0.00000000E+00  0.00000000E+00
  0.00000000E+00  0.00000000E+00  0.00000000E+00
  0.00000000E+00  0.00000000E+00  0.00000000E+00
  0.00000000E+00  0.00000000E+00  0.00000000E+00
  0.00000000E+00  0.00000000E+00  0.00000000E+00
  0.00000000E+00  0.00000000E+00  0.00000000E+00
  0.00000000E+00  0.00000000E+00  0.00000000E+00
  0.00000000E+00  0.00000000E+00  0.00000000E+00
  0.00000000E+00  0.00000000E+00  0.00000000E+00
  0.00000000E+00  0.00000000E+00  0.00000000E+00
  0.00000000E+00  0.00000000E+00  0.00000000E+00
  0.00000000E+00  0.00000000E+00  0.00000000E+00
  0.00000000E+00  0.00000000E+00  0.00000000E+00
  0.00000000E+00  0.00000000E+00  0.00000000E+00
  0.00000000E+00  0.00000000E+00  0.00000000E+00
  0.00000000E+00  0.00000000E+00  0.00000000E+00
  0.00000000E+00  0.00000000E+00  0.00000000E+00
  0.00000000E+00  0.00000000E+00  0.00000000E+00
  0.00000000E+00  0.00000000E+00  0.00000000E+00
  0.00000000E+00  0.00000000E+00  0.00000000E+00
  0.00000000E+00  0.00000000E+00  0.00000000E+00
  0.00000000E+00  0.00000000E+00  0.00000000E+00
  0.00000000E+00  0.00000000E+00  0.00000000E+00
  0.00000000E+00  0.00000000E+00  0.00000000E+00
  0.00000000E+00  0.00000000E+00  0.00000000E+00
  0.00000000E+00  0.00000000E+00  0.00000000E+00
  0.00000000E+00  0.00000000E+00  0.00000000E+00
  0.00000000E+00  0.00000000E+00  0.00000000E+00
  0.00000000E+00  0.00000000E+00  0.00000000E+00
  0.00000000E+00  0.00000000E+00  0.00000000E+00
  0.00000000E+00  0.00000000E+00  0.00000000E+00
  0.00000000E+00  0.00000000E+00  0.00000000E+00
  0.00000000E+00  0.00000000E+00  0.00000000E+00
  0.00000000E+00  0.00000000E+00  0.00000000E+00
  0.00000000E+00  0.00000000E+00  0.00000000E+00
  0.00000000E+00  0.00000000E+00  0.00000000E+00
  0.00000000E+00  0.00000000E+00  0.00000000E+00
  0.00000000E+00  0.00000000E+00  0.00000000E+00
  0.00000000E+00  0.00000000E+00  0.00000000E+00
  0.00000000E+00  0.00000000E+00  0.00000000E+00
  0.00000000E+00  0.00000000E+00  0.00000000E+00
  0.00000000E+00  0.00000000E+00  0.00000000E+00
  0.00000000E+00  0.00000000E+00  0.00000000E+00
  0.00000000E+00  0.00000000E+00  0.00000000E+00
  0.00000000E+00  0.00000000E+00  0.00000000E+00
  0.00000000E+00  0.00000000E+00  0.00000000E+00
  0.00000000E+00  0.00000000E+00  0.00000000E+00
  0.00000000E+00  0.00000000E+00  0.00000000E+00
  0.00000000E+00  0.00000000E+00  0.00000000E+00
  0.00000000E+00  0.00000000E+00  0.00000000E+00
  0.00000000E+00  0.00000000E+00  0.00000000E+00
  0.00000000E+00  0.00000000E+00  0.00000000E+00
  0.00000000E+00  0.00000000E+00  0.00000000E+00
  0.00000000E+00  0.00000000E+00  0.00000000E+00
  0.00000000E+00  0.00000000E+00  0.00000000E+00
  0.00000000E+00  0.00000000E+00  0.00000000E+00
  0.00000000E+00  0.00000000E+00  0.00000000E+00
  0.00000000E+00  0.00000000E+00  0.00000000E+00
  0.00000000E+00  0.00000000E+00  0.00000000E+00
  0.00000000E+00  0.00000000E+00  0.00000000E+00
  0.00000000E+00  0.00000000E+00  0.00000000E+00
  0.00000000E+00  0.00000000E+00  0.00000000E+00
  0.00000000E+00  0.00000000E+00  0.00000000E+00
  0.00000000E+00  0.00000000E+00  0.00000000E+00
  0.00000000E+00  0.00000000E+00  0.00000000E+00
  0.00000000E+00  0.00000000E+00  0.00000000E+00
  0.00000000E+00  0.00000000E+00  0.00000000E+00
  0.00000000E+00  0.00000000E+00  0.00000000E+00
  0.00000000E+00  0.00000000E+00  0.00000000E+00
  0.00000000E+00  0.00000000E+00  0.00000000E+00
  0.00000000E+00  0.00000000E+00  0.00000000E+00
  0.00000000E+00  0.00000000E+00  0.00000000E+00
  0.00000000E+00  0.00000000E+00  0.00000000E+00
  0.00000000E+00  0.00000000E+00  0.00000000E+00
